Al2 Ag2 S4                              
   1.00000000000000     
    -2.8512468990400381    2.8512468990400386    5.2103956354790704
     2.8512468990400381   -2.8512468990400386    5.2103956354790704
     2.8512468990400390    2.8512468990400386   -5.2103956354790704
   Al   Ag   S 
     2     2     4
Direct
  0.5000000000000000  0.5000000000000000  0.0000000000000000
  0.2500000000000000  0.7500000000000000  0.5000000000000000
  0.7500000000000000  0.2500000000000000  0.5000000000000000
  0.0000000000000000  0.0000000000000000  0.0000000000000000
  0.8750000000000000  0.8299012100000027  0.4549012100000027
  0.1700987899999973  0.6250000000000000  0.0450987899999973
  0.3750000000000000  0.4200987899999973  0.5450987899999973
  0.5799012100000027  0.1250000000000000  0.9549012100000027
 
  0.00000000E+00  0.00000000E+00  0.00000000E+00
  0.00000000E+00  0.00000000E+00  0.00000000E+00
  0.00000000E+00  0.00000000E+00  0.00000000E+00
  0.00000000E+00  0.00000000E+00  0.00000000E+00
  0.00000000E+00  0.00000000E+00  0.00000000E+00
  0.00000000E+00  0.00000000E+00  0.00000000E+00
  0.00000000E+00  0.00000000E+00  0.00000000E+00
  0.00000000E+00  0.00000000E+00  0.00000000E+00
