Ag1 Br1                                 
   1.00000000000000     
     0.0000000000000005    2.8921694792901165    2.8921694792901165
     2.8921694792901165    0.0000000000000000    2.8921694792901165
     2.8921694792901169    2.8921694792901165    0.0000000000000004
   Ag   Br
     1     1
Direct
  0.0000000000000000  0.0000000000000000  0.0000000000000000
  0.5000000000000000  0.5000000000000000  0.5000000000000000
 
  0.00000000E+00  0.00000000E+00  0.00000000E+00
  0.00000000E+00  0.00000000E+00  0.00000000E+00
