Ag1 F1                                  
   1.00000000000000     
     0.0000000000000004    2.4608862125580320    2.4608862125580320
     2.4608862125580320    0.0000000000000000    2.4608862125580320
     2.4608862125580324    2.4608862125580320    0.0000000000000003
   Ag   F 
     1     1
Direct
  0.0000000000000000  0.0000000000000000  0.0000000000000000
  0.5000000000000000  0.5000000000000000  0.5000000000000000
 
  0.00000000E+00  0.00000000E+00  0.00000000E+00
  0.00000000E+00  0.00000000E+00  0.00000000E+00
