Ga2 Ag2 Te4                             
   1.00000000000000     
    -3.1722993329206028    3.1722993329206033    6.0891583274116092
     3.1722993329206028   -3.1722993329206033    6.0891583274116092
     3.1722993329206037    3.1722993329206033   -6.0891583274116092
   Ga   Ag   Te
     2     2     4
Direct
  0.2500000000000000  0.7500000000000000  0.5000000000000000
  0.5000000000000000  0.5000000000000000  0.0000000000000000
  0.7500000000000000  0.2500000000000000  0.5000000000000000
  0.0000000000000000  0.0000000000000000  0.0000000000000000
  0.3750000000000000  0.3936518599999985  0.5186518599999985
  0.6063481400000015  0.1250000000000000  0.9813481400000015
  0.1436518599999985  0.6250000000000000  0.0186518599999985
  0.8750000000000000  0.8563481400000015  0.4813481400000015
 
  0.00000000E+00  0.00000000E+00  0.00000000E+00
  0.00000000E+00  0.00000000E+00  0.00000000E+00
  0.00000000E+00  0.00000000E+00  0.00000000E+00
  0.00000000E+00  0.00000000E+00  0.00000000E+00
  0.00000000E+00  0.00000000E+00  0.00000000E+00
  0.00000000E+00  0.00000000E+00  0.00000000E+00
  0.00000000E+00  0.00000000E+00  0.00000000E+00
  0.00000000E+00  0.00000000E+00  0.00000000E+00
