Ga2 Ag2 Se4                             
   1.00000000000000     
    -2.9923477695356628    2.9923477695356633    5.5488440652507025
     2.9923477695356628   -2.9923477695356633    5.5488440652507025
     2.9923477695356637    2.9923477695356633   -5.5488440652507025
   Ga   Ag   Se
     2     2     4
Direct
  0.2500000000000000  0.7500000000000000  0.5000000000000000
  0.5000000000000000  0.5000000000000000  0.0000000000000000
  0.0000000000000000  0.0000000000000000  0.0000000000000000
  0.7500000000000000  0.2500000000000000  0.5000000000000000
  0.5933618800000033  0.6250000000000000  0.4683618800000033
  0.3750000000000000  0.8433618800000033  0.9683618800000033
  0.1566381199999967  0.1250000000000000  0.5316381199999967
  0.8750000000000000  0.4066381199999967  0.0316381199999967
 
  0.00000000E+00  0.00000000E+00  0.00000000E+00
  0.00000000E+00  0.00000000E+00  0.00000000E+00
  0.00000000E+00  0.00000000E+00  0.00000000E+00
  0.00000000E+00  0.00000000E+00  0.00000000E+00
  0.00000000E+00  0.00000000E+00  0.00000000E+00
  0.00000000E+00  0.00000000E+00  0.00000000E+00
  0.00000000E+00  0.00000000E+00  0.00000000E+00
  0.00000000E+00  0.00000000E+00  0.00000000E+00
