Ga2 Ag2 S4                              
   1.00000000000000     
     4.0671056232336644    4.0664465683125197    0.0000000000000000
     4.0671056232336644   -4.0664465683125197    0.0000000000000000
     0.0000000000000000   -4.0592258432005481   -5.1972312823073068
   Ga   Ag   S 
     2     2     4
Direct
  0.3692767100000012  0.3812656899999993  0.0062666500000006
  0.6187343100000007  0.6307232899999988  0.5062666500000006
  0.8722514399999994  0.8818340300000003  0.0060386899999969
  0.1181659699999997  0.1277485600000006  0.5060386899999969
  0.2829368299999970  0.5039197500000014  0.2578384600000021
  0.9945745200000005  0.2960200300000011  0.7548551900000007
  0.4960802499999986  0.7170631700000030  0.7578384600000021
  0.7039799699999989  0.0054254799999995  0.2548551900000007
 
  0.00000000E+00  0.00000000E+00  0.00000000E+00
  0.00000000E+00  0.00000000E+00  0.00000000E+00
  0.00000000E+00  0.00000000E+00  0.00000000E+00
  0.00000000E+00  0.00000000E+00  0.00000000E+00
  0.00000000E+00  0.00000000E+00  0.00000000E+00
  0.00000000E+00  0.00000000E+00  0.00000000E+00
  0.00000000E+00  0.00000000E+00  0.00000000E+00
  0.00000000E+00  0.00000000E+00  0.00000000E+00
