AgI_P6_3mc
   1.00000000000000     
     2.2531379150290478   -3.9025493452901183    0.0000000000000000
     2.2531379150290478    3.9025493452901183    0.0000000000000000
     0.0000000000000000    0.0000000000000000   15.2623686099999993
   Ag   I 
     4     4
Direct
  0.0000000000000000  0.0000000000000000  0.3234740700000032
  0.6666666666666643  0.3333333333333357  0.4264708600000020
  0.3333333333333357  0.6666666666666643  0.9264708600000020
  0.0000000000000000  0.0000000000000000  0.8234740700000032
  0.0000000000000000  0.0000000000000000  0.0116399200000004
  0.6666666666666643  0.3333333333333357  0.2384151500000016
  0.3333333333333357  0.6666666666666643  0.7384151500000016
  0.0000000000000000  0.0000000000000000  0.5116399200000004
 
  0.00000000E+00  0.00000000E+00  0.00000000E+00
  0.00000000E+00  0.00000000E+00  0.00000000E+00
  0.00000000E+00  0.00000000E+00  0.00000000E+00
  0.00000000E+00  0.00000000E+00  0.00000000E+00
  0.00000000E+00  0.00000000E+00  0.00000000E+00
  0.00000000E+00  0.00000000E+00  0.00000000E+00
  0.00000000E+00  0.00000000E+00  0.00000000E+00
  0.00000000E+00  0.00000000E+00  0.00000000E+00
