In2 Ag2 S4                              
   1.00000000000000     
    -2.9369551556342062    2.9369551556342066    5.6977477580652787
     2.9369551556342062   -2.9369551556342066    5.6977477580652787
     2.9369551556342071    2.9369551556342066   -5.6977477580652787
   In   Ag   S 
     2     2     4
Direct
  0.2500000000000000  0.7500000000000000  0.5000000000000000
  0.5000000000000000  0.5000000000000000  0.0000000000000000
  0.0000000000000000  0.0000000000000000  0.0000000000000000
  0.7500000000000000  0.2500000000000000  0.5000000000000000
  0.6137493499999991  0.6250000000000000  0.4887493499999991
  0.3750000000000000  0.8637493499999991  0.9887493499999991
  0.1362506500000009  0.1250000000000000  0.5112506500000009
  0.8750000000000000  0.3862506500000009  0.0112506500000009
 
  0.00000000E+00  0.00000000E+00  0.00000000E+00
  0.00000000E+00  0.00000000E+00  0.00000000E+00
  0.00000000E+00  0.00000000E+00  0.00000000E+00
  0.00000000E+00  0.00000000E+00  0.00000000E+00
  0.00000000E+00  0.00000000E+00  0.00000000E+00
  0.00000000E+00  0.00000000E+00  0.00000000E+00
  0.00000000E+00  0.00000000E+00  0.00000000E+00
  0.00000000E+00  0.00000000E+00  0.00000000E+00
