In2 Ag2 Te4                             
   1.00000000000000     
    -3.2531379028166980    3.2531379028166985    6.4342259731485445
     3.2531379028166980   -3.2531379028166985    6.4342259731485445
     3.2531379028166989    3.2531379028166985   -6.4342259731485445
   In   Ag   Te
     2     2     4
Direct
  0.5000000000000000  0.5000000000000000  0.0000000000000000
  0.2500000000000000  0.7500000000000000  0.5000000000000000
  0.0000000000000000  0.0000000000000000  0.0000000000000000
  0.7500000000000000  0.2500000000000000  0.5000000000000000
  0.3750000000000000  0.3713459599999993  0.4963459599999993
  0.6286540400000007  0.1250000000000000  0.0036540400000007
  0.1213459599999993  0.6250000000000000  0.9963459599999993
  0.8750000000000000  0.8786540400000007  0.5036540400000007
 
  0.00000000E+00  0.00000000E+00  0.00000000E+00
  0.00000000E+00  0.00000000E+00  0.00000000E+00
  0.00000000E+00  0.00000000E+00  0.00000000E+00
  0.00000000E+00  0.00000000E+00  0.00000000E+00
  0.00000000E+00  0.00000000E+00  0.00000000E+00
  0.00000000E+00  0.00000000E+00  0.00000000E+00
  0.00000000E+00  0.00000000E+00  0.00000000E+00
  0.00000000E+00  0.00000000E+00  0.00000000E+00
