In2 Ag2 Se4                             
   1.00000000000000     
    -3.0678581453230924    3.0678581453230929    5.9626064028578272
     3.0678581453230924   -3.0678581453230929    5.9626064028578272
     3.0678581453230933    3.0678581453230929   -5.9626064028578272
   In   Ag   Se
     2     2     4
Direct
  0.2500000000000000  0.7500000000000000  0.5000000000000000
  0.5000000000000000  0.5000000000000000  0.0000000000000000
  0.0000000000000000  0.0000000000000000  0.0000000000000000
  0.7500000000000000  0.2500000000000000  0.5000000000000000
  0.6188522200000008  0.6250000000000000  0.4938522200000008
  0.3750000000000000  0.8688522200000008  0.9938522200000008
  0.1311477799999992  0.1250000000000000  0.5061477799999992
  0.8750000000000000  0.3811477799999992  0.0061477799999992
 
  0.00000000E+00  0.00000000E+00  0.00000000E+00
  0.00000000E+00  0.00000000E+00  0.00000000E+00
  0.00000000E+00  0.00000000E+00  0.00000000E+00
  0.00000000E+00  0.00000000E+00  0.00000000E+00
  0.00000000E+00  0.00000000E+00  0.00000000E+00
  0.00000000E+00  0.00000000E+00  0.00000000E+00
  0.00000000E+00  0.00000000E+00  0.00000000E+00
  0.00000000E+00  0.00000000E+00  0.00000000E+00
