Al2 N2                                  
   1.00000000000000     
     1.5642940679883757   -2.7094368037344703    0.0000000000000000
     1.5642940679883757    2.7094368037344703    0.0000000000000000
     0.0000000000000000    0.0000000000000000    5.0169550000000003
   Al   N 
     2     2
Direct
  0.6666666666666643  0.3333333333333357  0.4992870000000025
  0.3333333333333357  0.6666666666666643  0.9992870000000025
  0.6666666666666643  0.3333333333333357  0.8807130000000001
  0.3333333333333357  0.6666666666666643  0.3807130000000001
 
  0.00000000E+00  0.00000000E+00  0.00000000E+00
  0.00000000E+00  0.00000000E+00  0.00000000E+00
  0.00000000E+00  0.00000000E+00  0.00000000E+00
  0.00000000E+00  0.00000000E+00  0.00000000E+00
