Ba1 F2                                  
   1.00000000000000     
     0.0000000000000005    3.1128654085164058    3.1128654085164058
     3.1128654085164058    0.0000000000000000    3.1128654085164058
     3.1128654085164063    3.1128654085164058    0.0000000000000004
   Ba   F 
     1     2
Direct
  0.0000000000000000  0.0000000000000000  0.0000000000000000
  0.2500000000000000  0.2500000000000000  0.2500000000000000
  0.7500000000000000  0.7500000000000000  0.7500000000000000
 
  0.00000000E+00  0.00000000E+00  0.00000000E+00
  0.00000000E+00  0.00000000E+00  0.00000000E+00
  0.00000000E+00  0.00000000E+00  0.00000000E+00
