Ba1 Hf1 O3                              
   1.00000000000000     
     4.1695667998694201    0.0000000000000000    0.0000000000000003
     0.0000000000000007    4.1695667998694201    0.0000000000000003
     0.0000000000000000    0.0000000000000000    4.1703766343145281
   Ba   Hf   O 
     1     1     3
Direct
  0.5000000000000000  0.5000000000000000  0.9964249599999988
  0.0000000000000000  0.0000000000000000  0.4978753299999994
  0.0000000000000000  0.5000000000000000  0.4988901400000003
  0.5000000000000000  0.0000000000000000  0.4988901400000003
  0.0000000000000000  0.0000000000000000  0.9979412200000013
 
  0.00000000E+00  0.00000000E+00  0.00000000E+00
  0.00000000E+00  0.00000000E+00  0.00000000E+00
  0.00000000E+00  0.00000000E+00  0.00000000E+00
  0.00000000E+00  0.00000000E+00  0.00000000E+00
  0.00000000E+00  0.00000000E+00  0.00000000E+00
