Ba1 O1                                  
   1.00000000000000     
     0.0000000000000004    2.7903917095181625    2.7903917095181625
     2.7903917095181625    0.0000000000000000    2.7903917095181625
     2.7903917095181630    2.7903917095181625    0.0000000000000003
   Ba   O 
     1     1
Direct
  0.0000000000000000  0.0000000000000000  0.0000000000000000
  0.5000000000000000  0.5000000000000000  0.5000000000000000
 
  0.00000000E+00  0.00000000E+00  0.00000000E+00
  0.00000000E+00  0.00000000E+00  0.00000000E+00
