Ba1 S1                                  
   1.00000000000000     
     0.0000000000000005    3.2256756180057344    3.2256756180057344
     3.2256756180057344    0.0000000000000000    3.2256756180057344
     3.2256756180057349    3.2256756180057344    0.0000000000000004
   Ba   S 
     1     1
Direct
  0.0000000000000000  0.0000000000000000  0.0000000000000000
  0.5000000000000000  0.5000000000000000  0.5000000000000000
 
  0.00000000E+00  0.00000000E+00  0.00000000E+00
  0.00000000E+00  0.00000000E+00  0.00000000E+00
