Ba1 Se1                                 
   1.00000000000000     
     0.0000000000000005    3.3336218863528182    3.3336218863528182
     3.3336218863528182    0.0000000000000000    3.3336218863528182
     3.3336218863528186    3.3336218863528182    0.0000000000000004
   Ba   Se
     1     1
Direct
  0.0000000000000000  0.0000000000000000  0.0000000000000000
  0.5000000000000000  0.5000000000000000  0.5000000000000000
 
  0.00000000E+00  0.00000000E+00  0.00000000E+00
  0.00000000E+00  0.00000000E+00  0.00000000E+00
