Ba1 Sn1 O3                              
   1.00000000000000     
     4.1434654200000001    0.0000000000000000    0.0000000000000003
     0.0000000000000007    4.1434654200000001    0.0000000000000003
     0.0000000000000000    0.0000000000000000    4.1434654200000001
   Ba   Sn   O 
     1     1     3
Direct
  0.5000000000000000  0.5000000000000000  0.5000000000000000
  0.0000000000000000  0.0000000000000000  0.0000000000000000
  0.0000000000000000  0.5000000000000000  0.0000000000000000
  0.0000000000000000  0.0000000000000000  0.5000000000000000
  0.5000000000000000  0.0000000000000000  0.0000000000000000
 
  0.00000000E+00  0.00000000E+00  0.00000000E+00
  0.00000000E+00  0.00000000E+00  0.00000000E+00
  0.00000000E+00  0.00000000E+00  0.00000000E+00
  0.00000000E+00  0.00000000E+00  0.00000000E+00
  0.00000000E+00  0.00000000E+00  0.00000000E+00
