Ba1 Te1                                 
   1.00000000000000     
     0.0000000000000006    3.5449197699601274    3.5449197699601274
     3.5449197699601274    0.0000000000000000    3.5449197699601274
     3.5449197699601278    3.5449197699601274    0.0000000000000004
   Ba   Te
     1     1
Direct
  0.0000000000000000  0.0000000000000000  0.0000000000000000
  0.5000000000000000  0.5000000000000000  0.5000000000000000
 
  0.00000000E+00  0.00000000E+00  0.00000000E+00
  0.00000000E+00  0.00000000E+00  0.00000000E+00
