Ba1 Ti1 O3                              
   1.00000000000000     
     3.9903792100000000    0.0000000000000000    0.0000000000000002
     0.0000000000000006    3.9903792100000000    0.0000000000000002
     0.0000000000000000    0.0000000000000000    4.1026553899999998
   Ba   Ti   O 
     1     1     3
Direct
  0.5000000000000000  0.5000000000000000  0.5825414600000016
  0.0000000000000000  0.0000000000000000  0.1000427000000030
  0.0000000000000000  0.5000000000000000  0.0642205400000009
  0.5000000000000000  0.0000000000000000  0.0642205400000009
  0.0000000000000000  0.0000000000000000  0.5489717499999998
 
  0.00000000E+00  0.00000000E+00  0.00000000E+00
  0.00000000E+00  0.00000000E+00  0.00000000E+00
  0.00000000E+00  0.00000000E+00  0.00000000E+00
  0.00000000E+00  0.00000000E+00  0.00000000E+00
  0.00000000E+00  0.00000000E+00  0.00000000E+00
