Be2 O2                                  
   1.00000000000000     
     1.3471383556682759   -2.3333120768422466    0.0000000000000000
     1.3471383556682759    2.3333120768422466    0.0000000000000000
     0.0000000000000000    0.0000000000000000    4.3760188900000001
   Be   O 
     2     2
Direct
  0.3333333333333357  0.6666666666666643  0.0001601700000009
  0.6666666666666643  0.3333333333333357  0.5001601700000009
  0.3333333333333357  0.6666666666666643  0.3773398299999968
  0.6666666666666643  0.3333333333333357  0.8773398299999968
 
  0.00000000E+00  0.00000000E+00  0.00000000E+00
  0.00000000E+00  0.00000000E+00  0.00000000E+00
  0.00000000E+00  0.00000000E+00  0.00000000E+00
  0.00000000E+00  0.00000000E+00  0.00000000E+00
