Be1 S1                                  
   1.00000000000000     
     0.0000000000000004    2.4351516488930023    2.4351516488930023
     2.4351516488930023    0.0000000000000000    2.4351516488930023
     2.4351516488930027    2.4351516488930023    0.0000000000000003
   Be   S 
     1     1
Direct
  0.0000000000000000  0.0000000000000000  0.0000000000000000
  0.7500000000000000  0.7500000000000000  0.7500000000000000
 
  0.00000000E+00  0.00000000E+00  0.00000000E+00
  0.00000000E+00  0.00000000E+00  0.00000000E+00
