Be1 Se1                                 
   1.00000000000000     
     0.0000000000000004    2.5839687381810279    2.5839687381810279
     2.5839687381810279    0.0000000000000000    2.5839687381810279
     2.5839687381810283    2.5839687381810279    0.0000000000000003
   Be   Se
     1     1
Direct
  0.0000000000000000  0.0000000000000000  0.0000000000000000
  0.2500000000000000  0.2500000000000000  0.2500000000000000
 
  0.00000000E+00  0.00000000E+00  0.00000000E+00
  0.00000000E+00  0.00000000E+00  0.00000000E+00
