Be1 Te1                                 
   1.00000000000000     
     0.0000000000000005    2.8314587875598787    2.8314587875598787
     2.8314587875598787    0.0000000000000000    2.8314587875598787
     2.8314587875598791    2.8314587875598787    0.0000000000000003
   Be   Te
     1     1
Direct
  0.0000000000000000  0.0000000000000000  0.0000000000000000
  0.7500000000000000  0.7500000000000000  0.7500000000000000
 
  0.00000000E+00  0.00000000E+00  0.00000000E+00
  0.00000000E+00  0.00000000E+00  0.00000000E+00
