Bi8 S12                                 
   1.00000000000000     
     3.9977937400000676    0.0000000000000000    0.0000000000000002
     0.0000000000000018   11.1606176657002614    0.0000000000000007
     0.0000000000000000    0.0000000000000000   11.5935907458201726
   Bi   S 
     8    12
Direct
  0.2500000000000000  0.3263441200000017  0.0175537149999982
  0.7500000000000000  0.6736558799999983  0.9824462850000018
  0.7500000000000000  0.8263441200000017  0.4824462850000018
  0.2500000000000000  0.1736558799999983  0.5175537149999982
  0.7500000000000000  0.0326408299999983  0.1564717950000016
  0.2500000000000000  0.9673591700000017  0.8435282049999984
  0.2500000000000000  0.5326408299999983  0.3435282049999984
  0.7500000000000000  0.4673591700000017  0.6564717950000016
  0.7500000000000000  0.3712497599999978  0.4517918550000033
  0.2500000000000000  0.6287502400000022  0.5482081449999967
  0.2500000000000000  0.8712497599999978  0.0482081449999967
  0.7500000000000000  0.1287502400000022  0.9517918550000033
  0.7500000000000000  0.4435523399999965  0.1215966250000022
  0.2500000000000000  0.5564476600000035  0.8784033749999978
  0.2500000000000000  0.9435523399999965  0.3784033749999978
  0.7500000000000000  0.0564476600000035  0.6215966250000022
  0.2500000000000000  0.3086575399999987  0.7106401249999976
  0.7500000000000000  0.6913424600000013  0.2893598750000024
  0.7500000000000000  0.8086575399999987  0.7893598750000024
  0.2500000000000000  0.1913424600000013  0.2106401249999976
 
  0.00000000E+00  0.00000000E+00  0.00000000E+00
  0.00000000E+00  0.00000000E+00  0.00000000E+00
  0.00000000E+00  0.00000000E+00  0.00000000E+00
  0.00000000E+00  0.00000000E+00  0.00000000E+00
  0.00000000E+00  0.00000000E+00  0.00000000E+00
  0.00000000E+00  0.00000000E+00  0.00000000E+00
  0.00000000E+00  0.00000000E+00  0.00000000E+00
  0.00000000E+00  0.00000000E+00  0.00000000E+00
  0.00000000E+00  0.00000000E+00  0.00000000E+00
  0.00000000E+00  0.00000000E+00  0.00000000E+00
  0.00000000E+00  0.00000000E+00  0.00000000E+00
  0.00000000E+00  0.00000000E+00  0.00000000E+00
  0.00000000E+00  0.00000000E+00  0.00000000E+00
  0.00000000E+00  0.00000000E+00  0.00000000E+00
  0.00000000E+00  0.00000000E+00  0.00000000E+00
  0.00000000E+00  0.00000000E+00  0.00000000E+00
  0.00000000E+00  0.00000000E+00  0.00000000E+00
  0.00000000E+00  0.00000000E+00  0.00000000E+00
  0.00000000E+00  0.00000000E+00  0.00000000E+00
  0.00000000E+00  0.00000000E+00  0.00000000E+00
