Ca1 F2                                  
   1.00000000000000     
     0.0000000000000004    2.7580259681561898    2.7580259681561898
     2.7580259681561898    0.0000000000000000    2.7580259681561898
     2.7580259681561903    2.7580259681561898    0.0000000000000003
   Ca   F 
     1     2
Direct
  0.0000000000000000  0.0000000000000000  0.0000000000000000
  0.7500000000000000  0.7500000000000000  0.7500000000000000
  0.2500000000000000  0.2500000000000000  0.2500000000000000
 
  0.00000000E+00  0.00000000E+00  0.00000000E+00
  0.00000000E+00  0.00000000E+00  0.00000000E+00
  0.00000000E+00  0.00000000E+00  0.00000000E+00
