Ca1 S1                                  
   1.00000000000000     
     0.0000000000000005    2.8523742917123207    2.8523742917123207
     2.8523742917123207    0.0000000000000000    2.8523742917123207
     2.8523742917123212    2.8523742917123207    0.0000000000000003
   Ca   S 
     1     1
Direct
  0.0000000000000000  0.0000000000000000  0.0000000000000000
  0.5000000000000000  0.5000000000000000  0.5000000000000000
 
  0.00000000E+00  0.00000000E+00  0.00000000E+00
  0.00000000E+00  0.00000000E+00  0.00000000E+00
