Ca1 Se1                                 
   1.00000000000000     
     0.0000000000000005    2.9702381051716968    2.9702381051716968
     2.9702381051716968    0.0000000000000000    2.9702381051716968
     2.9702381051716973    2.9702381051716968    0.0000000000000004
   Ca   Se
     1     1
Direct
  0.0000000000000000  0.0000000000000000  0.0000000000000000
  0.5000000000000000  0.5000000000000000  0.5000000000000000
 
  0.00000000E+00  0.00000000E+00  0.00000000E+00
  0.00000000E+00  0.00000000E+00  0.00000000E+00
