Ca4 Sn4 O12                             
   1.00000000000000     
     5.5239893100000002    0.0000000000000000    0.0000000000000003
     0.0000000000000009    5.6962779000000001    0.0000000000000003
     0.0000000000000000    0.0000000000000000    7.9070839299999998
   Ca   Sn   O 
     4     4    12
Direct
  0.9855062000000032  0.0537105900000014  0.2500000000000000
  0.4855062000000032  0.4462894099999986  0.7500000000000000
  0.5144937999999968  0.5537105900000014  0.2500000000000000
  0.0144937999999968  0.9462894099999986  0.7500000000000000
  0.0000000000000000  0.5000000000000000  0.5000000000000000
  0.5000000000000000  0.0000000000000000  0.5000000000000000
  0.5000000000000000  0.0000000000000000  0.0000000000000000
  0.0000000000000000  0.5000000000000000  0.0000000000000000
  0.6982907200000028  0.2983384899999990  0.4459998800000022
  0.1982907200000028  0.2016615100000010  0.5540001199999978
  0.8017092799999972  0.7983384899999990  0.0540001199999978
  0.3017092799999972  0.7016615100000010  0.9459998800000022
  0.3017092799999972  0.7016615100000010  0.5540001199999978
  0.8017092799999972  0.7983384899999990  0.4459998800000022
  0.1982907200000028  0.2016615100000010  0.9459998800000022
  0.6982907200000028  0.2983384899999990  0.0540001199999978
  0.1031270000000006  0.4618175199999968  0.2500000000000000
  0.6031270000000006  0.0381824800000032  0.7500000000000000
  0.3968729999999994  0.9618175199999968  0.2500000000000000
  0.8968729999999994  0.5381824800000032  0.7500000000000000
 
  0.00000000E+00  0.00000000E+00  0.00000000E+00
  0.00000000E+00  0.00000000E+00  0.00000000E+00
  0.00000000E+00  0.00000000E+00  0.00000000E+00
  0.00000000E+00  0.00000000E+00  0.00000000E+00
  0.00000000E+00  0.00000000E+00  0.00000000E+00
  0.00000000E+00  0.00000000E+00  0.00000000E+00
  0.00000000E+00  0.00000000E+00  0.00000000E+00
  0.00000000E+00  0.00000000E+00  0.00000000E+00
  0.00000000E+00  0.00000000E+00  0.00000000E+00
  0.00000000E+00  0.00000000E+00  0.00000000E+00
  0.00000000E+00  0.00000000E+00  0.00000000E+00
  0.00000000E+00  0.00000000E+00  0.00000000E+00
  0.00000000E+00  0.00000000E+00  0.00000000E+00
  0.00000000E+00  0.00000000E+00  0.00000000E+00
  0.00000000E+00  0.00000000E+00  0.00000000E+00
  0.00000000E+00  0.00000000E+00  0.00000000E+00
  0.00000000E+00  0.00000000E+00  0.00000000E+00
  0.00000000E+00  0.00000000E+00  0.00000000E+00
  0.00000000E+00  0.00000000E+00  0.00000000E+00
  0.00000000E+00  0.00000000E+00  0.00000000E+00
