Ca1 Te1                                 
   1.00000000000000     
     0.0000000000000005    3.1958543790271925    3.1958543790271925
     3.1958543790271925    0.0000000000000000    3.1958543790271925
     3.1958543790271929    3.1958543790271925    0.0000000000000004
   Ca   Te
     1     1
Direct
  0.0000000000000000  0.0000000000000000  0.0000000000000000
  0.5000000000000000  0.5000000000000000  0.5000000000000000
 
  0.00000000E+00  0.00000000E+00  0.00000000E+00
  0.00000000E+00  0.00000000E+00  0.00000000E+00
