Ca4 Ti4 O12                             
   1.00000000000000     
     5.3720488599999996    0.0000000000000000    0.0000000000000003
     0.0000000000000009    5.4627964899999997    0.0000000000000003
     0.0000000000000000    0.0000000000000000    7.6363596200000003
   Ca   Ti   O 
     4     4    12
Direct
  0.5090669100000014  0.5423975499999969  0.7500000000000000
  0.4909330899999986  0.4576024500000031  0.2500000000000000
  0.9909330899999986  0.0423975499999969  0.7500000000000000
  0.0090669100000014  0.9576024500000031  0.2500000000000000
  0.0000000000000000  0.5000000000000000  0.5000000000000000
  0.0000000000000000  0.5000000000000000  0.0000000000000000
  0.5000000000000000  0.0000000000000000  0.5000000000000000
  0.5000000000000000  0.0000000000000000  0.0000000000000000
  0.0767811099999989  0.4813276200000018  0.7500000000000000
  0.9232188900000011  0.5186723799999982  0.2500000000000000
  0.4232188900000011  0.9813276200000018  0.7500000000000000
  0.5767811099999989  0.0186723799999982  0.2500000000000000
  0.7902937200000011  0.7896137800000034  0.9598412799999991
  0.2097062799999989  0.2103862199999966  0.4598412799999991
  0.2097062799999989  0.2103862199999966  0.0401587200000009
  0.7902937200000011  0.7896137800000034  0.5401587200000009
  0.7097062799999989  0.2896137799999963  0.9598412799999991
  0.2902937200000011  0.7103862199999966  0.4598412799999991
  0.2902937200000011  0.7103862199999966  0.0401587200000009
  0.7097062799999989  0.2896137799999963  0.5401587200000009
 
  0.00000000E+00  0.00000000E+00  0.00000000E+00
  0.00000000E+00  0.00000000E+00  0.00000000E+00
  0.00000000E+00  0.00000000E+00  0.00000000E+00
  0.00000000E+00  0.00000000E+00  0.00000000E+00
  0.00000000E+00  0.00000000E+00  0.00000000E+00
  0.00000000E+00  0.00000000E+00  0.00000000E+00
  0.00000000E+00  0.00000000E+00  0.00000000E+00
  0.00000000E+00  0.00000000E+00  0.00000000E+00
  0.00000000E+00  0.00000000E+00  0.00000000E+00
  0.00000000E+00  0.00000000E+00  0.00000000E+00
  0.00000000E+00  0.00000000E+00  0.00000000E+00
  0.00000000E+00  0.00000000E+00  0.00000000E+00
  0.00000000E+00  0.00000000E+00  0.00000000E+00
  0.00000000E+00  0.00000000E+00  0.00000000E+00
  0.00000000E+00  0.00000000E+00  0.00000000E+00
  0.00000000E+00  0.00000000E+00  0.00000000E+00
  0.00000000E+00  0.00000000E+00  0.00000000E+00
  0.00000000E+00  0.00000000E+00  0.00000000E+00
  0.00000000E+00  0.00000000E+00  0.00000000E+00
  0.00000000E+00  0.00000000E+00  0.00000000E+00
