Ca4 Zr4 O12                             
   1.00000000000000     
     5.5850057199999998    0.0000000000000000    0.0000000000000003
     0.0000000000000009    5.7780967800000003    0.0000000000000004
     0.0000000000000000    0.0000000000000000    8.0173802300000006
   Ca   Zr   O 
     4     4    12
Direct
  0.0135435799999968  0.9480418999999998  0.2500000000000000
  0.5135435799999968  0.5519581000000002  0.7500000000000000
  0.4864564200000032  0.4480418999999998  0.2500000000000000
  0.9864564200000032  0.0519581000000002  0.7500000000000000
  0.0000000000000000  0.5000000000000000  0.0000000000000000
  0.5000000000000000  0.0000000000000000  0.0000000000000000
  0.5000000000000000  0.0000000000000000  0.5000000000000000
  0.0000000000000000  0.5000000000000000  0.5000000000000000
  0.3023748199999972  0.7003078899999977  0.4434155100000012
  0.8023748199999972  0.7996921100000023  0.5565844899999988
  0.1976251800000028  0.2003078899999977  0.0565844899999988
  0.6976251800000028  0.2996921100000023  0.9434155100000012
  0.6976251800000028  0.2996921100000023  0.5565844899999988
  0.1976251800000028  0.2003078899999977  0.4434155100000012
  0.8023748199999972  0.7996921100000023  0.9434155100000012
  0.3023748199999972  0.7003078899999977  0.0565844899999988
  0.6068461799999980  0.0415588899999975  0.2500000000000000
  0.1068461799999980  0.4584411100000025  0.7500000000000000
  0.8931538200000020  0.5415588899999975  0.2500000000000000
  0.3931538200000020  0.9584411100000025  0.7500000000000000
 
  0.00000000E+00  0.00000000E+00  0.00000000E+00
  0.00000000E+00  0.00000000E+00  0.00000000E+00
  0.00000000E+00  0.00000000E+00  0.00000000E+00
  0.00000000E+00  0.00000000E+00  0.00000000E+00
  0.00000000E+00  0.00000000E+00  0.00000000E+00
  0.00000000E+00  0.00000000E+00  0.00000000E+00
  0.00000000E+00  0.00000000E+00  0.00000000E+00
  0.00000000E+00  0.00000000E+00  0.00000000E+00
  0.00000000E+00  0.00000000E+00  0.00000000E+00
  0.00000000E+00  0.00000000E+00  0.00000000E+00
  0.00000000E+00  0.00000000E+00  0.00000000E+00
  0.00000000E+00  0.00000000E+00  0.00000000E+00
  0.00000000E+00  0.00000000E+00  0.00000000E+00
  0.00000000E+00  0.00000000E+00  0.00000000E+00
  0.00000000E+00  0.00000000E+00  0.00000000E+00
  0.00000000E+00  0.00000000E+00  0.00000000E+00
  0.00000000E+00  0.00000000E+00  0.00000000E+00
  0.00000000E+00  0.00000000E+00  0.00000000E+00
  0.00000000E+00  0.00000000E+00  0.00000000E+00
  0.00000000E+00  0.00000000E+00  0.00000000E+00
