CdF2_Fm-3m
   1.00000000000000     
     0.0000000000000004    2.7005188915230200    2.7005188915230200
     2.7005188915230200    0.0000000000000000    2.7005188915230200
     2.7005188915230205    2.7005188915230200    0.0000000000000003
   Cd   F 
     1     2
Direct
  0.0000000000000000  0.0000000000000000  0.0000000000000000
  0.2500000000000000  0.2500000000000000  0.2500000000000000
  0.7500000000000000  0.7500000000000000  0.7500000000000000
 
  0.00000000E+00  0.00000000E+00  0.00000000E+00
  0.00000000E+00  0.00000000E+00  0.00000000E+00
  0.00000000E+00  0.00000000E+00  0.00000000E+00
