Cd2 Ge2 P4                              
   1.00000000000000     
    -2.8776339411469150    2.8776339411469154    5.4286357452961731
     2.8776339411469150   -2.8776339411469154    5.4286357452961731
     2.8776339411469158    2.8776339411469154   -5.4286357452961731
   Cd   Ge   P 
     2     2     4
Direct
  0.7500000000000000  0.2500000000000000  0.5000000000000000
  0.0000000000000000  0.0000000000000000  0.0000000000000000
  0.5000000000000000  0.5000000000000000  0.0000000000000000
  0.2500000000000000  0.7500000000000000  0.5000000000000000
  0.8750000000000000  0.8410475399999982  0.4660475399999982
  0.1589524600000018  0.6250000000000000  0.0339524600000018
  0.3750000000000000  0.4089524600000018  0.5339524600000018
  0.5910475399999982  0.1250000000000000  0.9660475399999982
 
  0.00000000E+00  0.00000000E+00  0.00000000E+00
  0.00000000E+00  0.00000000E+00  0.00000000E+00
  0.00000000E+00  0.00000000E+00  0.00000000E+00
  0.00000000E+00  0.00000000E+00  0.00000000E+00
  0.00000000E+00  0.00000000E+00  0.00000000E+00
  0.00000000E+00  0.00000000E+00  0.00000000E+00
  0.00000000E+00  0.00000000E+00  0.00000000E+00
  0.00000000E+00  0.00000000E+00  0.00000000E+00
