Cd1 O1                                  
   1.00000000000000     
     0.0000000000000004    2.3609927699308262    2.3609927699308262
     2.3609927699308262    0.0000000000000000    2.3609927699308262
     2.3609927699308266    2.3609927699308262    0.0000000000000003
   Cd   O 
     1     1
Direct
  0.0000000000000000  0.0000000000000000  0.0000000000000000
  0.5000000000000000  0.5000000000000000  0.5000000000000000
 
  0.00000000E+00  0.00000000E+00  0.00000000E+00
  0.00000000E+00  0.00000000E+00  0.00000000E+00
