Cd2 Si2 P4                              
   1.00000000000000     
    -2.8436137418290088    2.8436137418290093    5.2485579018461888
     2.8436137418290088   -2.8436137418290093    5.2485579018461888
     2.8436137418290097    2.8436137418290093   -5.2485579018461888
   Cd   Si   P 
     2     2     4
Direct
  0.7500000000000000  0.2500000000000000  0.5000000000000000
  0.0000000000000000  0.0000000000000000  0.0000000000000000
  0.5000000000000000  0.5000000000000000  0.0000000000000000
  0.2500000000000000  0.7500000000000000  0.5000000000000000
  0.8750000000000000  0.8281283000000030  0.4531283000000030
  0.1718716999999970  0.6250000000000000  0.0468716999999970
  0.3750000000000000  0.4218716999999970  0.5468716999999970
  0.5781283000000030  0.1250000000000000  0.9531283000000030
 
  0.00000000E+00  0.00000000E+00  0.00000000E+00
  0.00000000E+00  0.00000000E+00  0.00000000E+00
  0.00000000E+00  0.00000000E+00  0.00000000E+00
  0.00000000E+00  0.00000000E+00  0.00000000E+00
  0.00000000E+00  0.00000000E+00  0.00000000E+00
  0.00000000E+00  0.00000000E+00  0.00000000E+00
  0.00000000E+00  0.00000000E+00  0.00000000E+00
  0.00000000E+00  0.00000000E+00  0.00000000E+00
