Cs2AgInCl6_Fm-3m
   1.00000000000000     
     0.0000000000000009    5.3402000000000003    5.3402000000000003
     5.3402000000000003    0.0000000000000000    5.3402000000000003
     5.3402000000000012    5.3402000000000003    0.0000000000000007
   Cs   In   Ag   Cl
     2     1     1     6
Direct
  0.7500000000000000  0.7500000000000000  0.7500000000000000
  0.2500000000000000  0.2500000000000000  0.2500000000000000
  0.0000000000000000  0.0000000000000000  0.0000000000000000
  0.5000000000000000  0.5000000000000000  0.5000000000000000
  0.7593639999999979  0.2406360000000021  0.2406360000000021
  0.2406360000000021  0.2406360000000021  0.7593639999999979
  0.2406360000000021  0.7593639999999979  0.7593639999999979
  0.2406360000000021  0.7593639999999979  0.2406360000000021
  0.7593639999999979  0.2406360000000021  0.7593639999999979
  0.7593639999999979  0.7593639999999979  0.2406360000000021
 
  0.00000000E+00  0.00000000E+00  0.00000000E+00
  0.00000000E+00  0.00000000E+00  0.00000000E+00
  0.00000000E+00  0.00000000E+00  0.00000000E+00
  0.00000000E+00  0.00000000E+00  0.00000000E+00
  0.00000000E+00  0.00000000E+00  0.00000000E+00
  0.00000000E+00  0.00000000E+00  0.00000000E+00
  0.00000000E+00  0.00000000E+00  0.00000000E+00
  0.00000000E+00  0.00000000E+00  0.00000000E+00
  0.00000000E+00  0.00000000E+00  0.00000000E+00
  0.00000000E+00  0.00000000E+00  0.00000000E+00
