Cs2AgBiBr6_Fm-3m
   1.00000000000000     
     0.0000000000000009    5.7441480000000000    5.7441480000000000
     5.7441480000000000    0.0000000000000000    5.7441480000000000
     5.7441480000000009    5.7441480000000000    0.0000000000000007
   Cs   Ag   Bi   Br
     2     1     1     6
Direct
  0.7500000000000000  0.7500000000000000  0.7500000000000000
  0.2500000000000000  0.2500000000000000  0.2500000000000000
  0.5000000000000000  0.5000000000000000  0.5000000000000000
  0.0000000000000000  0.0000000000000000  0.0000000000000000
  0.7491940000000028  0.2508059999999972  0.2508059999999972
  0.2508059999999972  0.2508059999999972  0.7491940000000028
  0.2508059999999972  0.7491940000000028  0.7491940000000028
  0.2508059999999972  0.7491940000000028  0.2508059999999972
  0.7491940000000028  0.2508059999999972  0.7491940000000028
  0.7491940000000028  0.7491940000000028  0.2508059999999972
 
  0.00000000E+00  0.00000000E+00  0.00000000E+00
  0.00000000E+00  0.00000000E+00  0.00000000E+00
  0.00000000E+00  0.00000000E+00  0.00000000E+00
  0.00000000E+00  0.00000000E+00  0.00000000E+00
  0.00000000E+00  0.00000000E+00  0.00000000E+00
  0.00000000E+00  0.00000000E+00  0.00000000E+00
  0.00000000E+00  0.00000000E+00  0.00000000E+00
  0.00000000E+00  0.00000000E+00  0.00000000E+00
  0.00000000E+00  0.00000000E+00  0.00000000E+00
  0.00000000E+00  0.00000000E+00  0.00000000E+00
