Cs1 Br1                                 
   1.00000000000000     
     4.3256222199999996    0.0000000000000000    0.0000000000000003
     0.0000000000000007    4.3256222199999996    0.0000000000000003
     0.0000000000000000    0.0000000000000000    4.3256222199999996
   Cs   Br
     1     1
Direct
  0.0000000000000000  0.0000000000000000  0.0000000000000000
  0.5000000000000000  0.5000000000000000  0.5000000000000000
 
  0.00000000E+00  0.00000000E+00  0.00000000E+00
  0.00000000E+00  0.00000000E+00  0.00000000E+00
