Cs1 Cl1                                 
   1.00000000000000     
     4.1436983400000003    0.0000000000000000    0.0000000000000003
     0.0000000000000007    4.1436983400000003    0.0000000000000003
     0.0000000000000000    0.0000000000000000    4.1436983400000003
   Cs   Cl
     1     1
Direct
  0.0000000000000000  0.0000000000000000  0.0000000000000000
  0.5000000000000000  0.5000000000000000  0.5000000000000000
 
  0.00000000E+00  0.00000000E+00  0.00000000E+00
  0.00000000E+00  0.00000000E+00  0.00000000E+00
