Cs1 F1                                  
   1.00000000000000     
     0.0000000000000005    3.0061395261546955    3.0061395261546955
     3.0061395261546955    0.0000000000000000    3.0061395261546955
     3.0061395261546959    3.0061395261546955    0.0000000000000004
   Cs   F 
     1     1
Direct
  0.0000000000000000  0.0000000000000000  0.0000000000000000
  0.5000000000000000  0.5000000000000000  0.5000000000000000
 
  0.00000000E+00  0.00000000E+00  0.00000000E+00
  0.00000000E+00  0.00000000E+00  0.00000000E+00
