Cs1 Ge1 Cl3                             
   1.00000000000000     
     0.0000000000000001   -4.4419209574157588   -3.1783005335686960
    -3.8468163907245430    2.2209604787078794   -3.1783005335686960
     3.8468163907245430    2.2209604787078789   -3.1783005335686960
   Cs   Ge   Cl
     1     1     3
Direct
  0.9984033499999967  0.9984033500000038  0.9984033499999967
  0.5155331500000031  0.5155331500000031  0.5155331500000031
  0.4967126700000009  0.4967126700000009  0.9486381700000024
  0.9486381700000024  0.4967126700000009  0.4967126700000009
  0.4967126700000009  0.9486381700000024  0.4967126700000009
 
  0.00000000E+00  0.00000000E+00  0.00000000E+00
  0.00000000E+00  0.00000000E+00  0.00000000E+00
  0.00000000E+00  0.00000000E+00  0.00000000E+00
  0.00000000E+00  0.00000000E+00  0.00000000E+00
  0.00000000E+00  0.00000000E+00  0.00000000E+00
