CsGeBr3_R3m
   1.00000000000000     
     0.0000000000000000   -4.4894973591372302   -3.2209195297802511
    -3.8880187632359910    2.2447486795686151   -3.2209195297802511
     3.8880187632359910    2.2447486795686147   -3.2209195297802511
   Cs   Ge   Br
     1     1     3
Direct
  0.0017355252549224  0.0017355252549224  0.0017355252549224
  0.4858962960419830  0.4858962960419830  0.4858962960419830
  0.5063191222589940  0.0177299341851070  0.5063191222589940
  0.5063191222589940  0.5063191222589940  0.0177299341851070
  0.0177299341851070  0.5063191222589940  0.5063191222589940
 
  0.00000000E+00  0.00000000E+00  0.00000000E+00
  0.00000000E+00  0.00000000E+00  0.00000000E+00
  0.00000000E+00  0.00000000E+00  0.00000000E+00
  0.00000000E+00  0.00000000E+00  0.00000000E+00
  0.00000000E+00  0.00000000E+00  0.00000000E+00
