Cs1 Ge1 I3                              
   1.00000000000000     
     4.2241864609192543    4.3533663491992032    0.0000000000000000
     4.2241864609192543   -4.3533663491992032    0.0000000000000000
     0.0000000000000000   -0.3242691598681194   -6.1194964227909221
   Cs   Ge   I 
     1     1     3
Direct
  0.0890133799999973  0.9109866200000027  0.4133876000000001
  0.6273501599999989  0.3726498400000011  0.8658609800000008
  0.5883788399999972  0.4116211600000028  0.4192309199999968
  0.5911858300000006  0.9199282100000019  0.9067602499999978
  0.0800717899999981  0.4088141699999994  0.9067602499999978
 
  0.00000000E+00  0.00000000E+00  0.00000000E+00
  0.00000000E+00  0.00000000E+00  0.00000000E+00
  0.00000000E+00  0.00000000E+00  0.00000000E+00
  0.00000000E+00  0.00000000E+00  0.00000000E+00
  0.00000000E+00  0.00000000E+00  0.00000000E+00
