CsPbI3_Pm-3m
1.0
   6.2487583300000002   0.0000000000000000   0.0000000000000000
   0.0000000000000000   6.2487583300000002   0.0000000000000000
   0.0000000000000000   0.0000000000000000   6.2487583300000002
Cs  Pb  I
1  1  3
Direct
   0.5000000000000000   0.5000000000000000   0.5000000000000000
   0.0000000000000000   0.0000000000000000   0.0000000000000000
   0.0000000000000000   0.0000000000000000   0.5000000000000000
   0.0000000000000000   0.5000000000000000   0.0000000000000000
   0.5000000000000000   0.0000000000000000   0.0000000000000000
