CsPbCl3_Pm-3m
1.0
   5.6197248000000002   0.0000000000000000   0.0000000000000000
   0.0000000000000000   5.6197248000000002   0.0000000000000000
   0.0000000000000000   0.0000000000000000   5.6197248000000002
Cs  Pb  Cl
1  1  3
Direct
   0.0000000000000000   0.0000000000000000   0.0000000000000000
   0.5000000000000000   0.5000000000000000   0.5000000000000000
   0.0000000000000000   0.5000000000000000   0.5000000000000000
   0.5000000000000000   0.0000000000000000   0.5000000000000000
   0.5000000000000000   0.5000000000000000   0.0000000000000000
