CsPbBr3_Pm-3m
1.0
   5.8748178299999996   0.0000000000000000   0.0000000000000000
   0.0000000000000000   5.8748178299999996   0.0000000000000000
   0.0000000000000000   0.0000000000000000   5.8748178299999996
Cs  Pb  Br
1  1  3
Direct
   0.0000000000000000   0.0000000000000000   0.0000000000000000
   0.5000000000000000   0.5000000000000000   0.5000000000000000
   0.5000000000000000   0.5000000000000000   0.0000000000000000
   0.5000000000000000   0.0000000000000000   0.5000000000000000
   0.0000000000000000   0.5000000000000000   0.5000000000000000
