CsSnI3_Pm-3m
   1.00000000000000     
     6.1400322693011731   -0.0000000000000000    0.0000000000000004
     0.0000000000000010    6.1400322693011731    0.0000000000000004
    -0.0000000000000000   -0.0000000000000000    6.1400322693011731
   Cs   Sn   I 
     1     1     3
Direct
  0.5000000000000000  0.5000000000000000  0.5000000000000000
 -0.0000000000000000 -0.0000000000000000 -0.0000000000000000
  0.5000000000000000  0.0000000000000000  0.0000000000000000
 -0.0000000000000000 -0.0000000000000000  0.5000000000000000
 -0.0000000000000000  0.5000000000000000  0.0000000000000000
 
  0.00000000E+00  0.00000000E+00  0.00000000E+00
  0.00000000E+00  0.00000000E+00  0.00000000E+00
  0.00000000E+00  0.00000000E+00  0.00000000E+00
  0.00000000E+00  0.00000000E+00  0.00000000E+00
  0.00000000E+00  0.00000000E+00  0.00000000E+00
