Cs1 Sn1 Br3                             
   1.00000000000000     
     5.8390056100000001    0.0000000000000000    0.0000000000000004
     0.0000000000000009    5.8390056100000001    0.0000000000000004
     0.0000000000000000    0.0000000000000000    5.8390056100000001
   Cs   Sn   Br
     1     1     3
Direct
  0.0000000000000000  0.0000000000000000  0.0000000000000000
  0.5000000000000000  0.5000000000000000  0.5000000000000000
  0.5000000000000000  0.0000000000000000  0.5000000000000000
  0.5000000000000000  0.5000000000000000  0.0000000000000000
  0.0000000000000000  0.5000000000000000  0.5000000000000000
 
  0.00000000E+00  0.00000000E+00  0.00000000E+00
  0.00000000E+00  0.00000000E+00  0.00000000E+00
  0.00000000E+00  0.00000000E+00  0.00000000E+00
  0.00000000E+00  0.00000000E+00  0.00000000E+00
  0.00000000E+00  0.00000000E+00  0.00000000E+00
