Al2 Cu2 Se4                             
   1.00000000000000     
    -2.7934477976186800    2.7934477976186805    5.5286473576306214
     2.7934477976186800   -2.7934477976186805    5.5286473576306214
     2.7934477976186809    2.7934477976186805   -5.5286473576306214
   Al   Cu   Se
     2     2     4
Direct
  0.2500000000000000  0.7500000000000000  0.5000000000000000
  0.5000000000000000  0.5000000000000000  0.0000000000000000
  0.7500000000000000  0.2500000000000000  0.5000000000000000
  0.0000000000000000  0.0000000000000000  0.0000000000000000
  0.3750000000000000  0.3778956399999984  0.5028956399999984
  0.6221043600000016  0.1250000000000000  0.9971043600000016
  0.1278956399999984  0.6250000000000000  0.0028956399999984
  0.8750000000000000  0.8721043600000016  0.4971043600000016
 
  0.00000000E+00  0.00000000E+00  0.00000000E+00
  0.00000000E+00  0.00000000E+00  0.00000000E+00
  0.00000000E+00  0.00000000E+00  0.00000000E+00
  0.00000000E+00  0.00000000E+00  0.00000000E+00
  0.00000000E+00  0.00000000E+00  0.00000000E+00
  0.00000000E+00  0.00000000E+00  0.00000000E+00
  0.00000000E+00  0.00000000E+00  0.00000000E+00
  0.00000000E+00  0.00000000E+00  0.00000000E+00
