Al2 Cu2 Te4                             
   1.00000000000000     
    -3.0172932612635361    3.0172932612635366    6.0059146930191378
     3.0172932612635361   -3.0172932612635366    6.0059146930191378
     3.0172932612635370    3.0172932612635366   -6.0059146930191378
   Al   Cu   Te
     2     2     4
Direct
  0.5000000000000000  0.5000000000000000  0.0000000000000000
  0.2500000000000000  0.7500000000000000  0.5000000000000000
  0.0000000000000000  0.0000000000000000  0.0000000000000000
  0.7500000000000000  0.2500000000000000  0.5000000000000000
  0.1166437500000015  0.1250000000000000  0.4916437500000015
  0.8750000000000000  0.3666437500000015  0.9916437500000015
  0.3750000000000000  0.8833562499999985  0.0083562499999985
  0.6333562499999985  0.6250000000000000  0.5083562499999985
 
  0.00000000E+00  0.00000000E+00  0.00000000E+00
  0.00000000E+00  0.00000000E+00  0.00000000E+00
  0.00000000E+00  0.00000000E+00  0.00000000E+00
  0.00000000E+00  0.00000000E+00  0.00000000E+00
  0.00000000E+00  0.00000000E+00  0.00000000E+00
  0.00000000E+00  0.00000000E+00  0.00000000E+00
  0.00000000E+00  0.00000000E+00  0.00000000E+00
  0.00000000E+00  0.00000000E+00  0.00000000E+00
