Al2 Cu2 S4                              
   1.00000000000000     
    -2.6434080147298618    2.6434080147298622    5.2388351501111012
     2.6434080147298618   -2.6434080147298622    5.2388351501111012
     2.6434080147298626    2.6434080147298622   -5.2388351501111012
   Al   Cu   S 
     2     2     4
Direct
  0.2500000000000000  0.7500000000000000  0.5000000000000000
  0.5000000000000000  0.5000000000000000  0.0000000000000000
  0.0000000000000000  0.0000000000000000  0.0000000000000000
  0.7500000000000000  0.2500000000000000  0.5000000000000000
  0.6178096100000019  0.6250000000000000  0.4928096100000019
  0.3750000000000000  0.8678096100000019  0.9928096100000019
  0.1321903899999981  0.1250000000000000  0.5071903899999981
  0.8750000000000000  0.3821903899999981  0.0071903899999981
 
  0.00000000E+00  0.00000000E+00  0.00000000E+00
  0.00000000E+00  0.00000000E+00  0.00000000E+00
  0.00000000E+00  0.00000000E+00  0.00000000E+00
  0.00000000E+00  0.00000000E+00  0.00000000E+00
  0.00000000E+00  0.00000000E+00  0.00000000E+00
  0.00000000E+00  0.00000000E+00  0.00000000E+00
  0.00000000E+00  0.00000000E+00  0.00000000E+00
  0.00000000E+00  0.00000000E+00  0.00000000E+00
