Cu1 Br1                                 
   1.00000000000000     
    -2.0178654918165781    2.0178654918165786    2.7783382676146320
     2.0178654918165781   -2.0178654918165786    2.7783382676146320
     2.0178654918165790    2.0178654918165786   -2.7783382676146315
   Cu   Br
     1     1
Direct
  0.7500000000000000  0.2500000000000000  0.5000000000000000
  0.0000000000000000  0.0000000000000000  0.0000000000000000
 
  0.00000000E+00  0.00000000E+00  0.00000000E+00
  0.00000000E+00  0.00000000E+00  0.00000000E+00
