Cu1 Cl1                                 
   1.00000000000000     
     0.0000000000000000   -2.2000482165224433   -3.0543332198352342
    -1.9052976450590831    1.1000241082612217   -3.0543332198352342
     1.9052976450590831    1.1000241082612214   -3.0543332198352342
   Cu   Cl
     1     1
Direct
  0.0113060300000001  0.0113060300000001  0.0113060300000001
  0.7556926366666659  0.7556926366666659  0.7556926366666659
 
  0.00000000E+00  0.00000000E+00  0.00000000E+00
  0.00000000E+00  0.00000000E+00  0.00000000E+00
