Ga2 Cu2 Te4                             
   1.00000000000000     
    -3.0126600330599471    3.0126600330599476    6.0127484461769312
     3.0126600330599471   -3.0126600330599476    6.0127484461769312
     3.0126600330599480    3.0126600330599476   -6.0127484461769312
   Ga   Cu   Te
     2     2     4
Direct
  0.2500000000000000  0.7500000000000000  0.5000000000000000
  0.5000000000000000  0.5000000000000000  0.0000000000000000
  0.7500000000000000  0.2500000000000000  0.5000000000000000
  0.0000000000000000  0.0000000000000000  0.0000000000000000
  0.1135873899999993  0.1250000000000000  0.4885873899999993
  0.8750000000000000  0.3635873899999993  0.9885873899999993
  0.3750000000000000  0.8864126100000007  0.0114126100000007
  0.6364126100000007  0.6250000000000000  0.5114126100000007
 
  0.00000000E+00  0.00000000E+00  0.00000000E+00
  0.00000000E+00  0.00000000E+00  0.00000000E+00
  0.00000000E+00  0.00000000E+00  0.00000000E+00
  0.00000000E+00  0.00000000E+00  0.00000000E+00
  0.00000000E+00  0.00000000E+00  0.00000000E+00
  0.00000000E+00  0.00000000E+00  0.00000000E+00
  0.00000000E+00  0.00000000E+00  0.00000000E+00
  0.00000000E+00  0.00000000E+00  0.00000000E+00
