CuGaSe2_I-42d
1.0
  -2.7900558499999999   2.7900558499999999   5.5318226199999998
   2.7900558499999999  -2.7900558499999999   5.5318226199999998
   2.7900558499999999   2.7900558499999999  -5.5318226199999998
Ga  Cu  Se
2  2  4
Direct
   0.2500000000000000   0.7500000000000000   0.5000000000000000
   0.5000000000000000   0.5000000000000000   0.0000000000000000
   0.7500000000000000   0.2500000000000000   0.5000000000000000
   0.0000000000000000   0.0000000000000000   0.0000000000000000
   0.1174058400000000   0.1250000000000000   0.4924058400000000
   0.8750000000000000   0.3674058400000000   0.9924058400000000
   0.3750000000000000   0.8825941600000000   0.0075941600000000
   0.6325941600000000   0.6250000000000000   0.5075941600000000
