Ga2 Cu2 S4                              
   1.00000000000000     
    -2.6570809825603932    2.6570809825603936    5.2602329407938440
     2.6570809825603932   -2.6570809825603936    5.2602329407938440
     2.6570809825603940    2.6570809825603936   -5.2602329407938440
   Ga   Cu   S 
     2     2     4
Direct
  0.5000000000000000  0.5000000000000000  0.0000000000000000
  0.2500000000000000  0.7500000000000000  0.5000000000000000
  0.7500000000000000  0.2500000000000000  0.5000000000000000
  0.0000000000000000  0.0000000000000000  0.0000000000000000
  0.8750000000000000  0.8751839500000003  0.5001839500000003
  0.1248160499999997  0.6250000000000000  0.9998160499999997
  0.3750000000000000  0.3748160499999997  0.4998160499999997
  0.6251839500000003  0.1250000000000000  0.0001839500000003
 
  0.00000000E+00  0.00000000E+00  0.00000000E+00
  0.00000000E+00  0.00000000E+00  0.00000000E+00
  0.00000000E+00  0.00000000E+00  0.00000000E+00
  0.00000000E+00  0.00000000E+00  0.00000000E+00
  0.00000000E+00  0.00000000E+00  0.00000000E+00
  0.00000000E+00  0.00000000E+00  0.00000000E+00
  0.00000000E+00  0.00000000E+00  0.00000000E+00
  0.00000000E+00  0.00000000E+00  0.00000000E+00
