Cu4 I4                                  
   1.00000000000000     
     0.0000000000000000    4.2537394294866093    0.0000000000000000
     8.5118598900000002    0.0000000000000000    0.0000000000000000
     0.0000000000000000   -4.2492013865215457   -6.0158311103389117
   Cu   I 
     4     4
Direct
  0.2753526999999991  0.3735991799999994  0.7330210900000012
  0.2753526999999991  0.6264008200000006  0.2330210900000012
  0.2608340299999981  0.8760822500000032  0.7304249499999997
  0.2608340299999981  0.1239177499999968  0.2304249499999997
  0.0243280899999974  0.3751742899999968  0.9829287900000026
  0.0243280899999974  0.6248257100000032  0.4829287900000026
  0.0123831900000013  0.8747381599999997  0.9807241700000020
  0.0123831900000013  0.1252618400000003  0.4807241700000020
 
  0.00000000E+00  0.00000000E+00  0.00000000E+00
  0.00000000E+00  0.00000000E+00  0.00000000E+00
  0.00000000E+00  0.00000000E+00  0.00000000E+00
  0.00000000E+00  0.00000000E+00  0.00000000E+00
  0.00000000E+00  0.00000000E+00  0.00000000E+00
  0.00000000E+00  0.00000000E+00  0.00000000E+00
  0.00000000E+00  0.00000000E+00  0.00000000E+00
  0.00000000E+00  0.00000000E+00  0.00000000E+00
