In2 Cu2 Te4                             
   1.00000000000000     
    -3.1163177427304789    3.1163177427304793    6.2457087753093283
     3.1163177427304789   -3.1163177427304793    6.2457087753093283
     3.1163177427304798    3.1163177427304793   -6.2457087753093283
   In   Cu   Te
     2     2     4
Direct
  0.5000000000000000  0.5000000000000000  0.0000000000000000
  0.2500000000000000  0.7500000000000000  0.5000000000000000
  0.0000000000000000  0.0000000000000000  0.0000000000000000
  0.7500000000000000  0.2500000000000000  0.5000000000000000
  0.3750000000000000  0.3409609599999968  0.4659609599999968
  0.6590390400000032  0.1250000000000000  0.0340390400000032
  0.0909609599999968  0.6250000000000000  0.9659609599999968
  0.8750000000000000  0.9090390400000032  0.5340390400000032
 
  0.00000000E+00  0.00000000E+00  0.00000000E+00
  0.00000000E+00  0.00000000E+00  0.00000000E+00
  0.00000000E+00  0.00000000E+00  0.00000000E+00
  0.00000000E+00  0.00000000E+00  0.00000000E+00
  0.00000000E+00  0.00000000E+00  0.00000000E+00
  0.00000000E+00  0.00000000E+00  0.00000000E+00
  0.00000000E+00  0.00000000E+00  0.00000000E+00
  0.00000000E+00  0.00000000E+00  0.00000000E+00
