In2 Cu2 S4                              
   1.00000000000000     
    -2.7602024548284425    2.7602024548284430    5.5630848769001604
     2.7602024548284425   -2.7602024548284430    5.5630848769001604
     2.7602024548284434    2.7602024548284430   -5.5630848769001604
   In   Cu   S 
     2     2     4
Direct
  0.5000000000000000  0.5000000000000000  0.0000000000000000
  0.2500000000000000  0.7500000000000000  0.5000000000000000
  0.7500000000000000  0.2500000000000000  0.5000000000000000
  0.0000000000000000  0.0000000000000000  0.0000000000000000
  0.8750000000000000  0.9038026899999991  0.5288026899999991
  0.0961973100000009  0.6250000000000000  0.9711973100000009
  0.3750000000000000  0.3461973100000009  0.4711973100000009
  0.6538026899999991  0.1250000000000000  0.0288026899999991
 
  0.00000000E+00  0.00000000E+00  0.00000000E+00
  0.00000000E+00  0.00000000E+00  0.00000000E+00
  0.00000000E+00  0.00000000E+00  0.00000000E+00
  0.00000000E+00  0.00000000E+00  0.00000000E+00
  0.00000000E+00  0.00000000E+00  0.00000000E+00
  0.00000000E+00  0.00000000E+00  0.00000000E+00
  0.00000000E+00  0.00000000E+00  0.00000000E+00
  0.00000000E+00  0.00000000E+00  0.00000000E+00
