CuInSe2_I-42d
1.0
  -2.8867734700000001   2.8867734700000001   5.7956641800000002
   2.8867734700000001  -2.8867734700000001   5.7956641800000002
   2.8867734700000001   2.8867734700000001  -5.7956641800000002
In  Cu  Se
2  2  4
Direct
   0.5000000000000000   0.5000000000000000   0.0000000000000000
   0.2500000000000000   0.7500000000000000   0.5000000000000000
   0.0000000000000000   0.0000000000000000   0.0000000000000000
   0.7500000000000000   0.2500000000000000   0.5000000000000000
   0.3750000000000000   0.3414428700000000   0.4664428700000000
   0.8750000000000000   0.9085571300000000   0.5335571300000000
   0.6585571300000000   0.1250000000000000   0.0335571300000000
   0.0914428700000000   0.6250000000000000   0.9664428700000000
