FeS2_Pa-3
1.0
   5.3282572600000000   0.0000000000000000   0.0000000000000000
   0.0000000000000000   5.3282572600000000   0.0000000000000000
   0.0000000000000000   0.0000000000000000   5.3282572600000000
Fe  S
4  8
Direct
   0.0000000000000000   0.5000000000000000   0.5000000000000000
   0.5000000000000000   0.5000000000000000   0.0000000000000000
   0.5000000000000000   0.0000000000000000   0.5000000000000000
   0.0000000000000000   0.0000000000000000   0.0000000000000000
   0.3819997000000000   0.1180003000000000   0.8819997000000001
   0.1180003000000000   0.8819997000000001   0.3819997000000000
   0.8819997000000001   0.3819997000000000   0.1180003000000000
   0.6180002999999999   0.6180002999999999   0.6180002999999999
   0.3819997000000000   0.3819997000000000   0.3819997000000000
   0.1180003000000000   0.6180002999999999   0.8819997000000001
   0.8819997000000001   0.1180003000000000   0.6180002999999999
   0.6180002999999999   0.8819997000000001   0.1180003000000000
