Ga2O3_C2/m
   1.00000000000000     
     1.5245323750964705    6.1387920028190610   -0.0036110385360942
     1.5245323750964705   -6.1387920028190610    0.0036110385360942
     0.0000000000000000   -1.3804845063607367   -5.6423811672233839
   Ga   O 
     4     6
Direct
  0.6586709308418008  0.3413290691581993  0.3142135948460445
  0.3413290691581993  0.6586709308418008  0.6857864051539553
  0.0902947813505190  0.9097052186494811  0.7949804258927694
  0.9097052186494811  0.0902947813505190  0.2050195741072306
  0.4962501059544349  0.5037498940455651  0.2563729563895938
  0.5037498940455651  0.4962501059544349  0.7436270436104061
  0.1733189334274858  0.8266810665725145  0.5630308283610690
  0.8266810665725145  0.1733189334274858  0.4369691716389308
  0.8350998721425902  0.1649001278574098  0.8908037506302934
  0.1649001278574098  0.8350998721425902  0.1091962493697065
 
  0.00000000E+00  0.00000000E+00  0.00000000E+00
  0.00000000E+00  0.00000000E+00  0.00000000E+00
  0.00000000E+00  0.00000000E+00  0.00000000E+00
  0.00000000E+00  0.00000000E+00  0.00000000E+00
  0.00000000E+00  0.00000000E+00  0.00000000E+00
  0.00000000E+00  0.00000000E+00  0.00000000E+00
  0.00000000E+00  0.00000000E+00  0.00000000E+00
  0.00000000E+00  0.00000000E+00  0.00000000E+00
  0.00000000E+00  0.00000000E+00  0.00000000E+00
  0.00000000E+00  0.00000000E+00  0.00000000E+00
