GaS_P6_3/mmc
   1.00000000000000     
     1.7966236787881389   -3.1118434937423629    0.0000000000000000
     1.7966236787881389    3.1118434937423629    0.0000000000000000
     0.0000000000000000    0.0000000000000000   16.0146559900000014
   Ga   S 
     4     4
Direct
  0.3333333333333357  0.6666666666666643  0.3264495700000012
  0.6666666666666643  0.3333333333333357  0.8264495700000012
  0.6666666666666643  0.3333333333333357  0.6735504299999988
  0.3333333333333357  0.6666666666666643  0.1735504299999988
  0.3333333333333357  0.6666666666666643  0.8931488999999999
  0.6666666666666643  0.3333333333333357  0.3931488999999999
  0.6666666666666643  0.3333333333333357  0.1068511000000001
  0.3333333333333357  0.6666666666666643  0.6068511000000001
 
  0.00000000E+00  0.00000000E+00  0.00000000E+00
  0.00000000E+00  0.00000000E+00  0.00000000E+00
  0.00000000E+00  0.00000000E+00  0.00000000E+00
  0.00000000E+00  0.00000000E+00  0.00000000E+00
  0.00000000E+00  0.00000000E+00  0.00000000E+00
  0.00000000E+00  0.00000000E+00  0.00000000E+00
  0.00000000E+00  0.00000000E+00  0.00000000E+00
  0.00000000E+00  0.00000000E+00  0.00000000E+00
