GaSe_P6_3/mmc
   1.00000000000000     
     1.8862873560051456   -3.2671455382756744    0.0000000000000000
     1.8862873560051456    3.2671455382756744    0.0000000000000000
     0.0000000000000000    0.0000000000000000   16.5256095800000011
   Ga   Se
     4     4
Direct
  0.3333333333333357  0.6666666666666643  0.1761417700000010
  0.6666666666666643  0.3333333333333357  0.6761417700000010
  0.6666666666666643  0.3333333333333357  0.8238582299999990
  0.3333333333333357  0.6666666666666643  0.3238582299999990
  0.3333333333333357  0.6666666666666643  0.6061295399999977
  0.6666666666666643  0.3333333333333357  0.1061295399999977
  0.6666666666666643  0.3333333333333357  0.3938704600000023
  0.3333333333333357  0.6666666666666643  0.8938704600000023
 
  0.00000000E+00  0.00000000E+00  0.00000000E+00
  0.00000000E+00  0.00000000E+00  0.00000000E+00
  0.00000000E+00  0.00000000E+00  0.00000000E+00
  0.00000000E+00  0.00000000E+00  0.00000000E+00
  0.00000000E+00  0.00000000E+00  0.00000000E+00
  0.00000000E+00  0.00000000E+00  0.00000000E+00
  0.00000000E+00  0.00000000E+00  0.00000000E+00
  0.00000000E+00  0.00000000E+00  0.00000000E+00
