GaTe_C2/m
   1.00000000000000     
     2.0530236099999999    9.0314843462285772    0.0000000000000000
     2.0530236099999999   -9.0314843462285772    0.0000000000000000
     0.0000000000000000   -3.0798986369837107  -10.2855031326679356
   Ga   Te
     6     6
Direct
  0.8616166999999990  0.1383833000000010  0.5847685700000014
  0.1383833000000010  0.8616166999999990  0.4152314299999986
  0.7627011749999966  0.2372988250000034  0.6971119700000017
  0.2372988250000034  0.7627011749999966  0.3028880299999983
  0.4377290400000007  0.5622709599999993  0.9169068499999966
  0.5622709599999993  0.4377290400000007  0.0830931500000034
  0.8477501249999975  0.1522498750000025  0.9451324899999989
  0.1522498750000025  0.8477501249999975  0.0548675100000011
  0.8355245400000015  0.1644754599999985  0.3283966400000011
  0.1644754599999985  0.8355245400000015  0.6716033599999989
  0.4570889299999976  0.5429110700000024  0.6765712199999996
  0.5429110700000024  0.4570889299999976  0.3234287800000004
 
  0.00000000E+00  0.00000000E+00  0.00000000E+00
  0.00000000E+00  0.00000000E+00  0.00000000E+00
  0.00000000E+00  0.00000000E+00  0.00000000E+00
  0.00000000E+00  0.00000000E+00  0.00000000E+00
  0.00000000E+00  0.00000000E+00  0.00000000E+00
  0.00000000E+00  0.00000000E+00  0.00000000E+00
  0.00000000E+00  0.00000000E+00  0.00000000E+00
  0.00000000E+00  0.00000000E+00  0.00000000E+00
  0.00000000E+00  0.00000000E+00  0.00000000E+00
  0.00000000E+00  0.00000000E+00  0.00000000E+00
  0.00000000E+00  0.00000000E+00  0.00000000E+00
  0.00000000E+00  0.00000000E+00  0.00000000E+00
