GeO2_P4_2/mnm
   1.00000000000000     
     4.4124243500000002    0.0000000000000000    0.0000000000000003
     0.0000000000000007    4.4124243500000002    0.0000000000000003
     0.0000000000000000    0.0000000000000000    2.8765143399999999
   Ge   O 
     2     4
Direct
  0.5000000000000000  0.5000000000000000  0.5000000000000000
  0.0000000000000000  0.0000000000000000  0.0000000000000000
  0.6942292299999977  0.6942292299999977  0.0000000000000000
  0.1942292299999977  0.8057707700000023  0.5000000000000000
  0.3057707700000023  0.3057707700000023  0.0000000000000000
  0.8057707700000023  0.1942292299999977  0.5000000000000000
 
  0.00000000E+00  0.00000000E+00  0.00000000E+00
  0.00000000E+00  0.00000000E+00  0.00000000E+00
  0.00000000E+00  0.00000000E+00  0.00000000E+00
  0.00000000E+00  0.00000000E+00  0.00000000E+00
  0.00000000E+00  0.00000000E+00  0.00000000E+00
  0.00000000E+00  0.00000000E+00  0.00000000E+00
