Ge4 S4                                  
   1.00000000000000     
     3.6031403700000002    0.0000000000000000    0.0000000000000002
     0.0000000000000007    4.5231251300000004    0.0000000000000003
     0.0000000000000000    0.0000000000000000   10.7807516099999994
   Ge   S 
     4     4
Direct
  0.2500000000000000  0.3668910499999996  0.8722463399999967
  0.7500000000000000  0.6331089500000004  0.1277536600000033
  0.7500000000000000  0.8668910499999996  0.6277536600000033
  0.2500000000000000  0.1331089500000004  0.3722463399999967
  0.2500000000000000  0.5147881700000028  0.6548307199999996
  0.7500000000000000  0.4852118299999972  0.3451692800000004
  0.7500000000000000  0.0147881700000028  0.8451692800000004
  0.2500000000000000  0.9852118299999972  0.1548307199999996
 
  0.00000000E+00  0.00000000E+00  0.00000000E+00
  0.00000000E+00  0.00000000E+00  0.00000000E+00
  0.00000000E+00  0.00000000E+00  0.00000000E+00
  0.00000000E+00  0.00000000E+00  0.00000000E+00
  0.00000000E+00  0.00000000E+00  0.00000000E+00
  0.00000000E+00  0.00000000E+00  0.00000000E+00
  0.00000000E+00  0.00000000E+00  0.00000000E+00
  0.00000000E+00  0.00000000E+00  0.00000000E+00
