Ge4 Se4                                 
   1.00000000000000     
     3.7871878600000000    0.0000000000000000    0.0000000000000002
     0.0000000000000008    4.6643635200000002    0.0000000000000003
     0.0000000000000000    0.0000000000000000   11.2560349399999993
   Ge   Se
     4     4
Direct
  0.2500000000000000  0.1190017300000008  0.1290986400000023
  0.7500000000000000  0.8809982699999992  0.8709013599999977
  0.7500000000000000  0.6190017300000008  0.3709013599999977
  0.2500000000000000  0.3809982699999992  0.6290986400000023
  0.2500000000000000  0.5154685600000022  0.8492791899999972
  0.7500000000000000  0.4845314399999978  0.1507208100000028
  0.7500000000000000  0.0154685600000022  0.6507208100000028
  0.2500000000000000  0.9845314399999978  0.3492791899999972
 
  0.00000000E+00  0.00000000E+00  0.00000000E+00
  0.00000000E+00  0.00000000E+00  0.00000000E+00
  0.00000000E+00  0.00000000E+00  0.00000000E+00
  0.00000000E+00  0.00000000E+00  0.00000000E+00
  0.00000000E+00  0.00000000E+00  0.00000000E+00
  0.00000000E+00  0.00000000E+00  0.00000000E+00
  0.00000000E+00  0.00000000E+00  0.00000000E+00
  0.00000000E+00  0.00000000E+00  0.00000000E+00
