HfO2_P2_1/c
   1.00000000000000     
     0.0000000000000000    5.0941750111755004    0.0000000000000000
     5.1506446999999991    0.0000000000000000    0.0000000000000000
     0.0000000000000000   -0.8761689838465881   -5.2029534953788845
   Hf   O 
     4     8
Direct
  0.7238642200000029  0.5419353200000003  0.2920926700000024
  0.2761357799999971  0.0419353200000003  0.2079073299999976
  0.2761357799999971  0.4580646799999997  0.7079073299999976
  0.7238642200000029  0.9580646799999997  0.7920926700000024
  0.5520021800000023  0.2574740499999990  0.0214220100000020
  0.4479978199999977  0.7574740499999990  0.4785779899999980
  0.4479978199999977  0.7425259500000010  0.9785779899999980
  0.5520021800000023  0.2425259500000010  0.5214220100000020
  0.9316392200000010  0.6692411200000024  0.6537472199999996
  0.0683607799999990  0.1692411200000024  0.8462527800000004
  0.0683607799999990  0.3307588799999976  0.3462527800000004
  0.9316392200000010  0.8307588799999976  0.1537472199999996
 
  0.00000000E+00  0.00000000E+00  0.00000000E+00
  0.00000000E+00  0.00000000E+00  0.00000000E+00
  0.00000000E+00  0.00000000E+00  0.00000000E+00
  0.00000000E+00  0.00000000E+00  0.00000000E+00
  0.00000000E+00  0.00000000E+00  0.00000000E+00
  0.00000000E+00  0.00000000E+00  0.00000000E+00
  0.00000000E+00  0.00000000E+00  0.00000000E+00
  0.00000000E+00  0.00000000E+00  0.00000000E+00
  0.00000000E+00  0.00000000E+00  0.00000000E+00
  0.00000000E+00  0.00000000E+00  0.00000000E+00
  0.00000000E+00  0.00000000E+00  0.00000000E+00
  0.00000000E+00  0.00000000E+00  0.00000000E+00
