HfS2_P-3m1
   1.00000000000000     
     1.8198320900082461   -3.1520416411385401    0.0000000000000000
     1.8198320900082461    3.1520416411385401    0.0000000000000000
     0.0000000000000000    0.0000000000000000    6.0555624699999999
   Hf   S 
     1     2
Direct
  0.0000000000000000  0.0000000000000000  0.0000000000000000
  0.6666666666666643  0.3333333333333357  0.7639520500000003
  0.3333333333333357  0.6666666666666643  0.2360479499999997
 
  0.00000000E+00  0.00000000E+00  0.00000000E+00
  0.00000000E+00  0.00000000E+00  0.00000000E+00
  0.00000000E+00  0.00000000E+00  0.00000000E+00
