In2 Se2                                 
   1.00000000000000     
     0.0000000000000000   -2.3363548157094844   -8.6085246234419301
    -2.0233426226585243    1.1681774078547422   -8.6085246234419301
     2.0233426226585243    1.1681774078547422   -8.6085246234419301
   In   Se
     2     2
Direct
  0.1103465099999994  0.1103465099999994  0.1103465099999994
  0.0018301300000019  0.0018301300000019  0.0018301300000019
  0.6197098100000034  0.6197098100000034  0.6197098100000034
  0.8258115399999966  0.8258115399999966  0.8258115399999966
 
  0.00000000E+00  0.00000000E+00  0.00000000E+00
  0.00000000E+00  0.00000000E+00  0.00000000E+00
  0.00000000E+00  0.00000000E+00  0.00000000E+00
  0.00000000E+00  0.00000000E+00  0.00000000E+00
