K1 Br1                                  
   1.00000000000000     
     0.0000000000000005    3.2945409697988253    3.2945409697988253
     3.2945409697988253    0.0000000000000000    3.2945409697988253
     3.2945409697988257    3.2945409697988253    0.0000000000000004
   K    Br
     1     1
Direct
  0.0000000000000000  0.0000000000000000  0.0000000000000000
  0.5000000000000000  0.5000000000000000  0.5000000000000000
 
  0.00000000E+00  0.00000000E+00  0.00000000E+00
  0.00000000E+00  0.00000000E+00  0.00000000E+00
