K1 F1                                   
   1.00000000000000     
     0.0000000000000004    2.6544134050010477    2.6544134050010477
     2.6544134050010477    0.0000000000000000    2.6544134050010477
     2.6544134050010482    2.6544134050010477    0.0000000000000003
   K    F 
     1     1
Direct
  0.0000000000000000  0.0000000000000000  0.0000000000000000
  0.5000000000000000  0.5000000000000000  0.5000000000000000
 
  0.00000000E+00  0.00000000E+00  0.00000000E+00
  0.00000000E+00  0.00000000E+00  0.00000000E+00
