K1 I1                                   
   1.00000000000000     
     0.0000000000000006    3.5424356157249992    3.5424356157249992
     3.5424356157249992    0.0000000000000000    3.5424356157249992
     3.5424356157249997    3.5424356157249992    0.0000000000000004
   K    I 
     1     1
Direct
  0.0000000000000000  0.0000000000000000  0.0000000000000000
  0.5000000000000000  0.5000000000000000  0.5000000000000000
 
  0.00000000E+00  0.00000000E+00  0.00000000E+00
  0.00000000E+00  0.00000000E+00  0.00000000E+00
