La2 O3                                  
   1.00000000000000     
     1.9653889389849175   -3.4041534989557651    0.0000000000000000
     1.9653889389849175    3.4041534989557651    0.0000000000000000
     0.0000000000000000    0.0000000000000000    6.1119535200000001
   La   O 
     2     3
Direct
  0.6666666666666643  0.3333333333333357  0.7537643200000019
  0.3333333333333357  0.6666666666666643  0.2462356799999981
  0.6666666666666643  0.3333333333333357  0.3541093500000017
  0.3333333333333357  0.6666666666666643  0.6458906499999983
  0.0000000000000000  0.0000000000000000  0.0000000000000000
 
  0.00000000E+00  0.00000000E+00  0.00000000E+00
  0.00000000E+00  0.00000000E+00  0.00000000E+00
  0.00000000E+00  0.00000000E+00  0.00000000E+00
  0.00000000E+00  0.00000000E+00  0.00000000E+00
  0.00000000E+00  0.00000000E+00  0.00000000E+00
