La2 Al2 O6                              
   1.00000000000000     
     0.0000000000000000   -3.0962101568842808   -4.3641363217833327
    -2.6813966513171894    1.5481050784421404   -4.3641363217833327
     2.6813966513171894    1.5481050784421402   -4.3641363217833327
   La   Al   O 
     2     2     6
Direct
  0.2500000000000000  0.2500000000000000  0.2500000000000000
  0.7500000000000000  0.7500000000000000  0.7500000000000000
  0.0000000000000000  0.0000000000000000  0.0000000000000000
  0.5000000000000000  0.5000000000000000  0.5000000000000000
  0.2500000000000000  0.7817281000000023  0.7182718999999977
  0.7182718999999977  0.2500000000000000  0.7817281000000023
  0.7817281000000023  0.7182718999999977  0.2500000000000000
  0.7500000000000000  0.2182718999999977  0.2817281000000023
  0.2182718999999977  0.2817281000000023  0.7500000000000000
  0.2817281000000023  0.7500000000000000  0.2182718999999977
 
  0.00000000E+00  0.00000000E+00  0.00000000E+00
  0.00000000E+00  0.00000000E+00  0.00000000E+00
  0.00000000E+00  0.00000000E+00  0.00000000E+00
  0.00000000E+00  0.00000000E+00  0.00000000E+00
  0.00000000E+00  0.00000000E+00  0.00000000E+00
  0.00000000E+00  0.00000000E+00  0.00000000E+00
  0.00000000E+00  0.00000000E+00  0.00000000E+00
  0.00000000E+00  0.00000000E+00  0.00000000E+00
  0.00000000E+00  0.00000000E+00  0.00000000E+00
  0.00000000E+00  0.00000000E+00  0.00000000E+00
