Li2O_Fm-3m
   1.00000000000000     
     0.0000000000000004    2.3268543819180345    2.3268543819180345
     2.3268543819180345    0.0000000000000000    2.3268543819180345
     2.3268543819180350    2.3268543819180345    0.0000000000000003
   Li   O 
     2     1
Direct
  0.7500000000000000  0.7500000000000000  0.7500000000000000
  0.2500000000000000  0.2500000000000000  0.2500000000000000
  0.0000000000000000  0.0000000000000000  0.0000000000000000
 
  0.00000000E+00  0.00000000E+00  0.00000000E+00
  0.00000000E+00  0.00000000E+00  0.00000000E+00
  0.00000000E+00  0.00000000E+00  0.00000000E+00
