Li1 Br1                                 
   1.00000000000000     
     0.0000000000000004    2.7226905798364776    2.7226905798364776
     2.7226905798364776    0.0000000000000000    2.7226905798364776
     2.7226905798364780    2.7226905798364776    0.0000000000000003
   Li   Br
     1     1
Direct
  0.0000000000000000  0.0000000000000000  0.0000000000000000
  0.5000000000000000  0.5000000000000000  0.5000000000000000
 
  0.00000000E+00  0.00000000E+00  0.00000000E+00
  0.00000000E+00  0.00000000E+00  0.00000000E+00
