LiGaO2_Pna2_1
   1.00000000000000     
     5.0059920399999998    0.0000000000000000    0.0000000000000003
     0.0000000000000009    5.4012722999999996    0.0000000000000003
     0.0000000000000000    0.0000000000000000    6.3509717999999999
   Li   Ga   O 
     4     4     8
Direct
  0.9993883300000022  0.5820196600000003  0.8756141300000024
  0.4993883300000022  0.9179803399999997  0.3756141300000024
  0.9993883300000022  0.0820196600000003  0.6243858699999976
  0.4993883300000022  0.4179803399999997  0.1243858699999976
  0.0043046600000025  0.5824610100000029  0.3737823299999974
  0.5043046600000025  0.4175389899999971  0.6262176700000026
  0.5043046600000025  0.9175389899999971  0.8737823299999974
  0.0043046600000025  0.0824610100000029  0.1262176700000026
  0.3754418099999981  0.0707525999999987  0.1142363399999979
  0.3754418099999981  0.5707525999999987  0.3857636600000021
  0.8754418099999981  0.9292474000000013  0.8857636600000021
  0.8754418099999981  0.4292474000000013  0.6142363399999979
  0.8940661999999975  0.4090012899999991  0.1365488100000007
  0.3940661999999975  0.5909987100000009  0.8634511899999993
  0.3940661999999975  0.0909987100000009  0.6365488100000007
  0.8940661999999975  0.9090012899999991  0.3634511899999993
 
  0.00000000E+00  0.00000000E+00  0.00000000E+00
  0.00000000E+00  0.00000000E+00  0.00000000E+00
  0.00000000E+00  0.00000000E+00  0.00000000E+00
  0.00000000E+00  0.00000000E+00  0.00000000E+00
  0.00000000E+00  0.00000000E+00  0.00000000E+00
  0.00000000E+00  0.00000000E+00  0.00000000E+00
  0.00000000E+00  0.00000000E+00  0.00000000E+00
  0.00000000E+00  0.00000000E+00  0.00000000E+00
  0.00000000E+00  0.00000000E+00  0.00000000E+00
  0.00000000E+00  0.00000000E+00  0.00000000E+00
  0.00000000E+00  0.00000000E+00  0.00000000E+00
  0.00000000E+00  0.00000000E+00  0.00000000E+00
  0.00000000E+00  0.00000000E+00  0.00000000E+00
  0.00000000E+00  0.00000000E+00  0.00000000E+00
  0.00000000E+00  0.00000000E+00  0.00000000E+00
  0.00000000E+00  0.00000000E+00  0.00000000E+00
