Li1 I1                                  
   1.00000000000000     
     0.0000000000000005    2.9841774136217332    2.9841774136217332
     2.9841774136217332    0.0000000000000000    2.9841774136217332
     2.9841774136217336    2.9841774136217332    0.0000000000000004
   Li   I 
     1     1
Direct
  0.0000000000000000  0.0000000000000000  0.0000000000000000
  0.5000000000000000  0.5000000000000000  0.5000000000000000
 
  0.00000000E+00  0.00000000E+00  0.00000000E+00
  0.00000000E+00  0.00000000E+00  0.00000000E+00
