LiInS2_Pna2_1
   1.00000000000000     
     6.5204319300000000    0.0000000000000000    0.0000000000000004
     0.0000000000000011    6.9304706800000000    0.0000000000000004
     0.0000000000000000    0.0000000000000000    8.0885981499999993
   Li   In   S 
     4     4     8
Direct
  0.5668287399999983  0.5853227099999998  0.1223768999999990
  0.0668287399999983  0.4146772900000002  0.8776231000000010
  0.0668287399999983  0.9146772900000002  0.6223768999999990
  0.5668287399999983  0.0853227099999998  0.3776231000000010
  0.0642063100000030  0.9187006699999998  0.1256045100000023
  0.5642063100000030  0.0812993300000002  0.8743954899999977
  0.5642063100000030  0.5812993300000002  0.6256045100000023
  0.0642063100000030  0.4187006699999998  0.3743954899999977
  0.1920575799999966  0.0830159899999998  0.3766202099999987
  0.6920575799999966  0.9169840100000002  0.6233797900000013
  0.6920575799999966  0.4169840100000002  0.8766202099999987
  0.1920575799999966  0.5830159899999998  0.1233797900000013
  0.6841073699999995  0.9194893600000000  0.1283171299999992
  0.1841073699999995  0.0805106400000000  0.8716828700000008
  0.1841073699999995  0.5805106400000000  0.6283171299999992
  0.6841073699999995  0.4194893600000000  0.3716828700000008
 
  0.00000000E+00  0.00000000E+00  0.00000000E+00
  0.00000000E+00  0.00000000E+00  0.00000000E+00
  0.00000000E+00  0.00000000E+00  0.00000000E+00
  0.00000000E+00  0.00000000E+00  0.00000000E+00
  0.00000000E+00  0.00000000E+00  0.00000000E+00
  0.00000000E+00  0.00000000E+00  0.00000000E+00
  0.00000000E+00  0.00000000E+00  0.00000000E+00
  0.00000000E+00  0.00000000E+00  0.00000000E+00
  0.00000000E+00  0.00000000E+00  0.00000000E+00
  0.00000000E+00  0.00000000E+00  0.00000000E+00
  0.00000000E+00  0.00000000E+00  0.00000000E+00
  0.00000000E+00  0.00000000E+00  0.00000000E+00
  0.00000000E+00  0.00000000E+00  0.00000000E+00
  0.00000000E+00  0.00000000E+00  0.00000000E+00
  0.00000000E+00  0.00000000E+00  0.00000000E+00
  0.00000000E+00  0.00000000E+00  0.00000000E+00
