Li4 Nb4 O12                             
   1.00000000000000     
    -5.1539432903721076    0.0000000000000000    0.0000000000000000
    -2.5765896485847586   -4.8943911433590488    0.0000000000000000
    -2.5737715328841850   -2.1794359492982229    8.5045651829535185
   Li   Nb   O 
     4     4    12
Direct
  0.5586847200000022  0.7341301399999978  0.1469745200000006
  0.0585093449999974  0.2338845649999968  0.6467783599999990
  0.8089787199999989  0.9853566999999970  0.3978071000000014
  0.3105680700000022  0.4846060650000013  0.8971535499999987
  0.9825787649999995  0.0288765350000020  0.0058212599999976
  0.4822589150000027  0.5290973399999999  0.5057695899999999
  0.2325434400000006  0.2790078800000018  0.2556727699999968
  0.7327653700000027  0.7787592849999996  0.7557477300000031
  0.2560570600000034  0.8594264500000008  0.3646377099999967
  0.2129963650000022  0.1662363100000022  0.0576530399999982
  0.6950804299999973  0.0345308149999966  0.1895004300000025
  0.8132371849999984  0.4163345349999972  0.3076671299999987
  0.3310802250000009  0.2844786949999971  0.4394380499999997
  0.7566017600000023  0.3591112650000028  0.8644968899999981
  0.2699258800000024  0.6092172549999972  0.1146031199999982
  0.7129451549999999  0.6659368099999980  0.5577382900000032
  0.1951861750000035  0.5344932949999972  0.6895486700000006
  0.3134198650000002  0.9159024699999989  0.8077419099999972
  0.8310700850000003  0.7845684549999987  0.9394430999999983
  0.7697099700000010  0.1090451500000000  0.6144067600000014
 
  0.00000000E+00  0.00000000E+00  0.00000000E+00
  0.00000000E+00  0.00000000E+00  0.00000000E+00
  0.00000000E+00  0.00000000E+00  0.00000000E+00
  0.00000000E+00  0.00000000E+00  0.00000000E+00
  0.00000000E+00  0.00000000E+00  0.00000000E+00
  0.00000000E+00  0.00000000E+00  0.00000000E+00
  0.00000000E+00  0.00000000E+00  0.00000000E+00
  0.00000000E+00  0.00000000E+00  0.00000000E+00
  0.00000000E+00  0.00000000E+00  0.00000000E+00
  0.00000000E+00  0.00000000E+00  0.00000000E+00
  0.00000000E+00  0.00000000E+00  0.00000000E+00
  0.00000000E+00  0.00000000E+00  0.00000000E+00
  0.00000000E+00  0.00000000E+00  0.00000000E+00
  0.00000000E+00  0.00000000E+00  0.00000000E+00
  0.00000000E+00  0.00000000E+00  0.00000000E+00
  0.00000000E+00  0.00000000E+00  0.00000000E+00
  0.00000000E+00  0.00000000E+00  0.00000000E+00
  0.00000000E+00  0.00000000E+00  0.00000000E+00
  0.00000000E+00  0.00000000E+00  0.00000000E+00
  0.00000000E+00  0.00000000E+00  0.00000000E+00
