Mg2Ge_Fm-3m
   1.00000000000000     
     0.0000000000000005    3.1842959198418410    3.1842959198418410
     3.1842959198418410    0.0000000000000000    3.1842959198418410
     3.1842959198418415    3.1842959198418410    0.0000000000000004
   Mg   Ge
     2     1
Direct
  0.7500000000000000  0.7500000000000000  0.7500000000000000
  0.2500000000000000  0.2500000000000000  0.2500000000000000
  0.0000000000000000  0.0000000000000000  0.0000000000000000
 
  0.00000000E+00  0.00000000E+00  0.00000000E+00
  0.00000000E+00  0.00000000E+00  0.00000000E+00
  0.00000000E+00  0.00000000E+00  0.00000000E+00
