Mg2Sn_Fm-3m
   1.00000000000000     
     0.0000000000000005    3.3801536933532041    3.3801536933532041
     3.3801536933532041    0.0000000000000000    3.3801536933532041
     3.3801536933532046    3.3801536933532041    0.0000000000000004
   Mg   Sn
     2     1
Direct
  0.2500000000000000  0.2500000000000000  0.2500000000000000
  0.7500000000000000  0.7500000000000000  0.7500000000000000
  0.0000000000000000  0.0000000000000000  0.0000000000000000
 
  0.00000000E+00  0.00000000E+00  0.00000000E+00
  0.00000000E+00  0.00000000E+00  0.00000000E+00
  0.00000000E+00  0.00000000E+00  0.00000000E+00
