Mg2Si_Fm-3m
   1.00000000000000     
     0.0000000000000005    3.1698179194957086    3.1698179194957086
     3.1698179194957086    0.0000000000000000    3.1698179194957086
     3.1698179194957090    3.1698179194957086    0.0000000000000004
   Mg   Si
     2     1
Direct
  0.2500000000000000  0.2500000000000000  0.2500000000000000
  0.7500000000000000  0.7500000000000000  0.7500000000000000
  0.0000000000000000  0.0000000000000000  0.0000000000000000
 
  0.00000000E+00  0.00000000E+00  0.00000000E+00
  0.00000000E+00  0.00000000E+00  0.00000000E+00
  0.00000000E+00  0.00000000E+00  0.00000000E+00
