Mg3Sb2_P-3m1
   1.00000000000000     
     2.2862584648813540   -3.9599158204089306    0.0000000000000000
     2.2862584648813540    3.9599158204089306    0.0000000000000000
     0.0000000000000000    0.0000000000000000    7.2447527400000000
   Mg   Sb
     3     2
Direct
  0.0000000000000000  0.0000000000000000  0.0000000000000000
  0.3333333333333357  0.6666666666666643  0.3666155200000034
  0.6666666666666643  0.3333333333333357  0.6333844800000037
  0.3333333333333357  0.6666666666666643  0.7718739700000015
  0.6666666666666643  0.3333333333333357  0.2281260299999985
 
  0.00000000E+00  0.00000000E+00  0.00000000E+00
  0.00000000E+00  0.00000000E+00  0.00000000E+00
  0.00000000E+00  0.00000000E+00  0.00000000E+00
  0.00000000E+00  0.00000000E+00  0.00000000E+00
  0.00000000E+00  0.00000000E+00  0.00000000E+00
