Mg2 Al4 O8                              
   1.00000000000000     
     0.0000000000000006    4.0401955944142252    4.0401955944142252
     4.0401955944142252    0.0000000000000000    4.0401955944142252
     4.0401955944142260    4.0401955944142252    0.0000000000000005
   Mg   Al   O 
     2     4     8
Direct
  0.2500000000000000  0.2500000000000000  0.2500000000000000
  0.0000000000000000  0.0000000000000000  0.0000000000000000
  0.1250000000000000  0.6250000000000000  0.6250000000000000
  0.6250000000000000  0.6250000000000000  0.6250000000000000
  0.6250000000000000  0.1250000000000000  0.6250000000000000
  0.6250000000000000  0.6250000000000000  0.1250000000000000
  0.8612793400000029  0.8612793400000029  0.8612793400000029
  0.8338380200000017  0.3887206599999971  0.3887206599999971
  0.3887206599999971  0.3887206599999971  0.8338380200000017
  0.3887206599999971  0.8338380200000017  0.3887206599999971
  0.8612793400000029  0.8612793400000029  0.4161619799999983
  0.8612793400000029  0.4161619799999983  0.8612793400000029
  0.3887206599999971  0.3887206599999971  0.3887206599999971
  0.4161619799999983  0.8612793400000029  0.8612793400000029
 
  0.00000000E+00  0.00000000E+00  0.00000000E+00
  0.00000000E+00  0.00000000E+00  0.00000000E+00
  0.00000000E+00  0.00000000E+00  0.00000000E+00
  0.00000000E+00  0.00000000E+00  0.00000000E+00
  0.00000000E+00  0.00000000E+00  0.00000000E+00
  0.00000000E+00  0.00000000E+00  0.00000000E+00
  0.00000000E+00  0.00000000E+00  0.00000000E+00
  0.00000000E+00  0.00000000E+00  0.00000000E+00
  0.00000000E+00  0.00000000E+00  0.00000000E+00
  0.00000000E+00  0.00000000E+00  0.00000000E+00
  0.00000000E+00  0.00000000E+00  0.00000000E+00
  0.00000000E+00  0.00000000E+00  0.00000000E+00
  0.00000000E+00  0.00000000E+00  0.00000000E+00
  0.00000000E+00  0.00000000E+00  0.00000000E+00
