MgF2_P4_2/mnm
   1.00000000000000     
     4.6151966099999999    0.0000000000000000    0.0000000000000003
     0.0000000000000007    4.6151966099999999    0.0000000000000003
     0.0000000000000000    0.0000000000000000    3.0477835099999999
   Mg   F 
     2     4
Direct
  0.5000000000000000  0.5000000000000000  0.5000000000000000
  0.0000000000000000  0.0000000000000000  0.0000000000000000
  0.6970798600000023  0.6970798600000023  0.0000000000000000
  0.1970798600000023  0.8029201399999977  0.5000000000000000
  0.3029201399999977  0.3029201399999977  0.0000000000000000
  0.8029201399999977  0.1970798600000023  0.5000000000000000
 
  0.00000000E+00  0.00000000E+00  0.00000000E+00
  0.00000000E+00  0.00000000E+00  0.00000000E+00
  0.00000000E+00  0.00000000E+00  0.00000000E+00
  0.00000000E+00  0.00000000E+00  0.00000000E+00
  0.00000000E+00  0.00000000E+00  0.00000000E+00
  0.00000000E+00  0.00000000E+00  0.00000000E+00
