Mg1 S1                                  
   1.00000000000000     
     0.0000000000000004    2.6043975556104555    2.6043975556104555
     2.6043975556104555    0.0000000000000000    2.6043975556104555
     2.6043975556104559    2.6043975556104555    0.0000000000000003
   Mg   S 
     1     1
Direct
  0.0000000000000000  0.0000000000000000  0.0000000000000000
  0.5000000000000000  0.5000000000000000  0.5000000000000000
 
  0.00000000E+00  0.00000000E+00  0.00000000E+00
  0.00000000E+00  0.00000000E+00  0.00000000E+00
