Mg1 Se1                                 
   1.00000000000000     
     0.0000000000000004    2.7337235204243346    2.7337235204243346
     2.7337235204243346    0.0000000000000000    2.7337235204243346
     2.7337235204243351    2.7337235204243346    0.0000000000000003
   Mg   Se
     1     1
Direct
  0.0000000000000000  0.0000000000000000  0.0000000000000000
  0.5000000000000000  0.5000000000000000  0.5000000000000000
 
  0.00000000E+00  0.00000000E+00  0.00000000E+00
  0.00000000E+00  0.00000000E+00  0.00000000E+00
