Mg2 Te2                                 
   1.00000000000000     
     2.2951012696877529   -3.9752320076150278    0.0000000000000000
     2.2951012696877529    3.9752320076150278    0.0000000000000000
     0.0000000000000000    0.0000000000000000    7.4378057100000001
   Mg   Te
     2     2
Direct
  0.3333333333333357  0.6666666666666643  0.9959911700000035
  0.6666666666666643  0.3333333333333357  0.4959911699999964
  0.3333333333333357  0.6666666666666643  0.3740088300000011
  0.6666666666666643  0.3333333333333357  0.8740088300000011
 
  0.00000000E+00  0.00000000E+00  0.00000000E+00
  0.00000000E+00  0.00000000E+00  0.00000000E+00
  0.00000000E+00  0.00000000E+00  0.00000000E+00
  0.00000000E+00  0.00000000E+00  0.00000000E+00
