MoS2_P6_3/mmc
   1.00000000000000     
     1.5961189560652265   -2.7645591268287686    0.0000000000000000
     1.5961189560652265    2.7645591268287686    0.0000000000000000
     0.0000000000000000    0.0000000000000000   13.3782940000000004
   Mo   S 
     2     4
Direct
  0.6666666666666643  0.3333333333333357  0.2500000000000000
  0.3333333333333357  0.6666666666666643  0.7500000000000000
  0.6666666666666643  0.3333333333333357  0.6330820000000017
  0.3333333333333357  0.6666666666666643  0.3669179999999983
  0.6666666666666643  0.3333333333333357  0.8669179999999983
  0.3333333333333357  0.6666666666666643  0.1330820000000017
 
  0.00000000E+00  0.00000000E+00  0.00000000E+00
  0.00000000E+00  0.00000000E+00  0.00000000E+00
  0.00000000E+00  0.00000000E+00  0.00000000E+00
  0.00000000E+00  0.00000000E+00  0.00000000E+00
  0.00000000E+00  0.00000000E+00  0.00000000E+00
  0.00000000E+00  0.00000000E+00  0.00000000E+00
