MoSe2_P6_3/mmc
   1.00000000000000     
     1.6611300941223299   -2.8771617210015465    0.0000000000000000
     1.6611300941223299    2.8771617210015465    0.0000000000000000
     0.0000000000000000    0.0000000000000000   13.5429565499999995
   Mo   Se
     2     4
Direct
  0.6666666666666643  0.3333333333333357  0.7500000000000000
  0.3333333333333357  0.6666666666666643  0.2500000000000000
  0.3333333333333357  0.6666666666666643  0.8722223199999988
  0.6666666666666643  0.3333333333333357  0.3722223199999988
  0.3333333333333357  0.6666666666666643  0.6277776800000012
  0.6666666666666643  0.3333333333333357  0.1277776800000012
 
  0.00000000E+00  0.00000000E+00  0.00000000E+00
  0.00000000E+00  0.00000000E+00  0.00000000E+00
  0.00000000E+00  0.00000000E+00  0.00000000E+00
  0.00000000E+00  0.00000000E+00  0.00000000E+00
  0.00000000E+00  0.00000000E+00  0.00000000E+00
  0.00000000E+00  0.00000000E+00  0.00000000E+00
