Na1 Br1                                 
   1.00000000000000     
     0.0000000000000005    2.9615422538538776    2.9615422538538776
     2.9615422538538776    0.0000000000000000    2.9615422538538776
     2.9615422538538780    2.9615422538538776    0.0000000000000004
   Na   Br
     1     1
Direct
  0.0000000000000000  0.0000000000000000  0.0000000000000000
  0.5000000000000000  0.5000000000000000  0.5000000000000000
 
  0.00000000E+00  0.00000000E+00  0.00000000E+00
  0.00000000E+00  0.00000000E+00  0.00000000E+00
