Na1 F1                                  
   1.00000000000000     
     0.0000000000000004    2.2858943317252964    2.2858943317252964
     2.2858943317252964    0.0000000000000000    2.2858943317252964
     2.2858943317252969    2.2858943317252964    0.0000000000000003
   Na   F 
     1     1
Direct
  0.0000000000000000  0.0000000000000000  0.0000000000000000
  0.5000000000000000  0.5000000000000000  0.5000000000000000
 
  0.00000000E+00  0.00000000E+00  0.00000000E+00
  0.00000000E+00  0.00000000E+00  0.00000000E+00
