Na1 I1                                  
   1.00000000000000     
     0.0000000000000005    3.2186566863205752    3.2186566863205752
     3.2186566863205752    0.0000000000000000    3.2186566863205752
     3.2186566863205757    3.2186566863205752    0.0000000000000004
   Na   I 
     1     1
Direct
  0.0000000000000000  0.0000000000000000  0.0000000000000000
  0.5000000000000000  0.5000000000000000  0.5000000000000000
 
  0.00000000E+00  0.00000000E+00  0.00000000E+00
  0.00000000E+00  0.00000000E+00  0.00000000E+00
