Na4 Ta4 O12                             
   1.00000000000000     
     5.4538862300000002    0.0000000000000000    0.0000000000000003
     0.0000000000000009    5.5199992800000004    0.0000000000000003
     0.0000000000000000    0.0000000000000000    7.7747069399999997
   Na   Ta   O 
     4     4    12
Direct
  0.9950829799999994  0.9751663199999996  0.7500000000000000
  0.0049170200000006  0.0248336800000004  0.2500000000000000
  0.5049170200000006  0.4751663199999996  0.7500000000000000
  0.4950829799999994  0.5248336800000004  0.2500000000000000
  0.5000000000000000  0.0000000000000000  0.5000000000000000
  0.5000000000000000  0.0000000000000000  0.0000000000000000
  0.0000000000000000  0.5000000000000000  0.5000000000000000
  0.0000000000000000  0.5000000000000000  0.0000000000000000
  0.2097181399999997  0.7891452499999971  0.4639097499999991
  0.7902818600000003  0.2108547500000029  0.9639097499999991
  0.2902818600000003  0.2891452499999971  0.4639097499999991
  0.7097181399999997  0.7108547500000029  0.9639097499999991
  0.2097181399999997  0.7891452499999971  0.0360902500000009
  0.7902818600000003  0.2108547500000029  0.5360902500000009
  0.2902818600000003  0.2891452499999971  0.0360902500000009
  0.7097181399999997  0.7108547500000029  0.5360902500000009
  0.0706355200000033  0.5147051000000005  0.7500000000000000
  0.9293644799999967  0.4852948999999995  0.2500000000000000
  0.4293644799999967  0.0147051000000005  0.7500000000000000
  0.5706355200000033  0.9852948999999995  0.2500000000000000
 
  0.00000000E+00  0.00000000E+00  0.00000000E+00
  0.00000000E+00  0.00000000E+00  0.00000000E+00
  0.00000000E+00  0.00000000E+00  0.00000000E+00
  0.00000000E+00  0.00000000E+00  0.00000000E+00
  0.00000000E+00  0.00000000E+00  0.00000000E+00
  0.00000000E+00  0.00000000E+00  0.00000000E+00
  0.00000000E+00  0.00000000E+00  0.00000000E+00
  0.00000000E+00  0.00000000E+00  0.00000000E+00
  0.00000000E+00  0.00000000E+00  0.00000000E+00
  0.00000000E+00  0.00000000E+00  0.00000000E+00
  0.00000000E+00  0.00000000E+00  0.00000000E+00
  0.00000000E+00  0.00000000E+00  0.00000000E+00
  0.00000000E+00  0.00000000E+00  0.00000000E+00
  0.00000000E+00  0.00000000E+00  0.00000000E+00
  0.00000000E+00  0.00000000E+00  0.00000000E+00
  0.00000000E+00  0.00000000E+00  0.00000000E+00
  0.00000000E+00  0.00000000E+00  0.00000000E+00
  0.00000000E+00  0.00000000E+00  0.00000000E+00
  0.00000000E+00  0.00000000E+00  0.00000000E+00
  0.00000000E+00  0.00000000E+00  0.00000000E+00
