PbF2_Fm-3m
   1.00000000000000     
     0.0000000000000005    2.9579484323475427    2.9579484323475427
     2.9579484323475427    0.0000000000000000    2.9579484323475427
     2.9579484323475431    2.9579484323475427    0.0000000000000004
   Pb   F 
     1     2
Direct
  0.0000000000000000  0.0000000000000000  0.0000000000000000
  0.7500000000000000  0.7500000000000000  0.7500000000000000
  0.2500000000000000  0.2500000000000000  0.2500000000000000
 
  0.00000000E+00  0.00000000E+00  0.00000000E+00
  0.00000000E+00  0.00000000E+00  0.00000000E+00
  0.00000000E+00  0.00000000E+00  0.00000000E+00
