PbI2_P-3m1
   1.00000000000000     
     2.3063450600555502   -3.9947068238017063    0.0000000000000000
     2.3063450600555502    3.9947068238017063    0.0000000000000000
     0.0000000000000000    0.0000000000000000    7.2570292712715938
   Pb   I 
     1     2
Direct
  0.0000000000000000  0.0000000000000000  0.0000000000000000
  0.6666666666666643  0.3333333333333357  0.7409464799999981
  0.3333333333333357  0.6666666666666643  0.2590535200000019
 
  0.00000000E+00  0.00000000E+00  0.00000000E+00
  0.00000000E+00  0.00000000E+00  0.00000000E+00
  0.00000000E+00  0.00000000E+00  0.00000000E+00
