Pb4 S4                                  
   1.00000000000000     
     4.2305071600000002    0.0000000000000000    0.0000000000000003
     0.0000000000000010    5.9824947999999996    0.0000000000000004
     0.0000000000000000    0.0000000000000000    8.4331939299999998
   Pb   S 
     4     4
Direct
  0.7500000000000000  0.7500887599999970  0.1237649400000009
  0.7500000000000000  0.7499112400000030  0.6237649400000009
  0.2500000000000000  0.2499112400000030  0.8762350599999991
  0.2500000000000000  0.2500887599999970  0.3762350599999991
  0.2500000000000000  0.7509490300000010  0.8747563399999976
  0.2500000000000000  0.7490509699999990  0.3747563399999976
  0.7500000000000000  0.2490509699999990  0.1252436600000024
  0.7500000000000000  0.2509490300000010  0.6252436600000024
 
  0.00000000E+00  0.00000000E+00  0.00000000E+00
  0.00000000E+00  0.00000000E+00  0.00000000E+00
  0.00000000E+00  0.00000000E+00  0.00000000E+00
  0.00000000E+00  0.00000000E+00  0.00000000E+00
  0.00000000E+00  0.00000000E+00  0.00000000E+00
  0.00000000E+00  0.00000000E+00  0.00000000E+00
  0.00000000E+00  0.00000000E+00  0.00000000E+00
  0.00000000E+00  0.00000000E+00  0.00000000E+00
