Ti1 Pb1 O3                              
   1.00000000000000     
     3.8795519000000001    0.0000000000000000    0.0000000000000002
     0.0000000000000006    3.8795519000000001    0.0000000000000002
     0.0000000000000000    0.0000000000000000    4.2858876199999996
   Ti   Pb   O 
     1     1     3
Direct
  0.5000000000000000  0.5000000000000000  0.5825144399999971
  0.0000000000000000  0.0000000000000000  0.1235879500000010
  0.0000000000000000  0.5000000000000000  0.4941576499999982
  0.5000000000000000  0.0000000000000000  0.4941576499999982
  0.5000000000000000  0.5000000000000000  0.9957823200000036
 
  0.00000000E+00  0.00000000E+00  0.00000000E+00
  0.00000000E+00  0.00000000E+00  0.00000000E+00
  0.00000000E+00  0.00000000E+00  0.00000000E+00
  0.00000000E+00  0.00000000E+00  0.00000000E+00
  0.00000000E+00  0.00000000E+00  0.00000000E+00
