PtS2_P-3m1
   1.00000000000000     
     1.7743710946719351   -3.0733008874533980    0.0000000000000000
     1.7743710946719351    3.0733008874533980    0.0000000000000000
     0.0000000000000000    0.0000000000000000    5.5970665400000001
   Pt   S 
     1     2
Direct
  0.0000000000000000  0.0000000000000000  0.0000000000000000
  0.6666666666666643  0.3333333333333357  0.7796640600000018
  0.3333333333333357  0.6666666666666643  0.2203359399999982
 
  0.00000000E+00  0.00000000E+00  0.00000000E+00
  0.00000000E+00  0.00000000E+00  0.00000000E+00
  0.00000000E+00  0.00000000E+00  0.00000000E+00
