Rb1 Br1                                 
   1.00000000000000     
     0.0000000000000006    3.4559503594855965    3.4559503594855965
     3.4559503594855965    0.0000000000000000    3.4559503594855965
     3.4559503594855969    3.4559503594855965    0.0000000000000004
   Rb   Br
     1     1
Direct
  0.0000000000000000  0.0000000000000000  0.0000000000000000
  0.5000000000000000  0.5000000000000000  0.5000000000000000
 
  0.00000000E+00  0.00000000E+00  0.00000000E+00
  0.00000000E+00  0.00000000E+00  0.00000000E+00
