Rb1 Cl1                                 
   1.00000000000000     
     0.0000000000000005    3.3087073290131124    3.3087073290131124
     3.3087073290131124    0.0000000000000000    3.3087073290131124
     3.3087073290131128    3.3087073290131124    0.0000000000000004
   Rb   Cl
     1     1
Direct
  0.0000000000000000  0.0000000000000000  0.0000000000000000
  0.5000000000000000  0.5000000000000000  0.5000000000000000
 
  0.00000000E+00  0.00000000E+00  0.00000000E+00
  0.00000000E+00  0.00000000E+00  0.00000000E+00
