Rb1 F1                                  
   1.00000000000000     
     0.0000000000000005    2.8161418454005176    2.8161418454005176
     2.8161418454005176    0.0000000000000000    2.8161418454005176
     2.8161418454005180    2.8161418454005176    0.0000000000000003
   Rb   F 
     1     1
Direct
  0.0000000000000000  0.0000000000000000  0.0000000000000000
  0.5000000000000000  0.5000000000000000  0.5000000000000000
 
  0.00000000E+00  0.00000000E+00  0.00000000E+00
  0.00000000E+00  0.00000000E+00  0.00000000E+00
