Sb8 S12                                 
   1.00000000000000     
     3.8447329099999998    0.0000000000000000    0.0000000000000002
     0.0000000000000018   11.3671411399999993    0.0000000000000007
     0.0000000000000000    0.0000000000000000   11.8001184499999994
   Sb   S 
     8    12
Direct
  0.7500000000000000  0.4655836199999968  0.8573504000000014
  0.2500000000000000  0.5344163800000032  0.1426495999999986
  0.2500000000000000  0.9655836199999968  0.6426495999999986
  0.7500000000000000  0.0344163800000032  0.3573504000000014
  0.2500000000000000  0.1730826699999994  0.9669436000000005
  0.7500000000000000  0.8269173300000006  0.0330563999999995
  0.7500000000000000  0.6730826699999994  0.5330563999999995
  0.2500000000000000  0.3269173300000006  0.4669436000000005
  0.7500000000000000  0.0614694900000003  0.8759271600000034
  0.2500000000000000  0.9385305099999997  0.1240728399999966
  0.2500000000000000  0.5614694900000003  0.6240728399999966
  0.7500000000000000  0.4385305099999997  0.3759271600000034
  0.7500000000000000  0.3792320399999980  0.0485414500000019
  0.2500000000000000  0.6207679600000020  0.9514585499999981
  0.2500000000000000  0.8792320399999980  0.4514585499999981
  0.7500000000000000  0.1207679600000020  0.5485414500000019
  0.2500000000000000  0.1885476100000005  0.3002492700000019
  0.7500000000000000  0.8114523899999995  0.6997507299999981
  0.7500000000000000  0.6885476100000005  0.1997507299999981
  0.2500000000000000  0.3114523899999995  0.8002492700000019
 
  0.00000000E+00  0.00000000E+00  0.00000000E+00
  0.00000000E+00  0.00000000E+00  0.00000000E+00
  0.00000000E+00  0.00000000E+00  0.00000000E+00
  0.00000000E+00  0.00000000E+00  0.00000000E+00
  0.00000000E+00  0.00000000E+00  0.00000000E+00
  0.00000000E+00  0.00000000E+00  0.00000000E+00
  0.00000000E+00  0.00000000E+00  0.00000000E+00
  0.00000000E+00  0.00000000E+00  0.00000000E+00
  0.00000000E+00  0.00000000E+00  0.00000000E+00
  0.00000000E+00  0.00000000E+00  0.00000000E+00
  0.00000000E+00  0.00000000E+00  0.00000000E+00
  0.00000000E+00  0.00000000E+00  0.00000000E+00
  0.00000000E+00  0.00000000E+00  0.00000000E+00
  0.00000000E+00  0.00000000E+00  0.00000000E+00
  0.00000000E+00  0.00000000E+00  0.00000000E+00
  0.00000000E+00  0.00000000E+00  0.00000000E+00
  0.00000000E+00  0.00000000E+00  0.00000000E+00
  0.00000000E+00  0.00000000E+00  0.00000000E+00
  0.00000000E+00  0.00000000E+00  0.00000000E+00
  0.00000000E+00  0.00000000E+00  0.00000000E+00
