Sc1 N1                                  
   1.00000000000000     
     0.0000000000000004    2.2554721840315004    2.2554721840315004
     2.2554721840315004    0.0000000000000000    2.2554721840315004
     2.2554721840315008    2.2554721840315004    0.0000000000000003
   Sc   N 
     1     1
Direct
  0.0000000000000000  0.0000000000000000  0.0000000000000000
  0.5000000000000000  0.5000000000000000  0.5000000000000000
 
  0.00000000E+00  0.00000000E+00  0.00000000E+00
  0.00000000E+00  0.00000000E+00  0.00000000E+00
