SnO2_P4_2/mnm
   1.00000000000000     
     4.7718513887644960    0.0000000000000000    0.0000000000000003
     0.0000000000000008    4.7718513887644960    0.0000000000000003
    -0.0000000000000000   -0.0000000000000000    3.2153519097448373
   Sn   O 
     2     4
Direct
  0.5000000000000000  0.5000000000000000  0.5000000000000000
  0.0000000000000000  0.0000000000000000 -0.0000000000000000
  0.8062343496276264  0.1937656503723735  0.5000000000000000
  0.1937656503723735  0.8062343496276264  0.5000000000000000
  0.3062343496276265  0.3062343496276336  0.0000000000000000
  0.6937656503723736  0.6937656503723736 -0.0000000000000000
 
  0.00000000E+00  0.00000000E+00  0.00000000E+00
  0.00000000E+00  0.00000000E+00  0.00000000E+00
  0.00000000E+00  0.00000000E+00  0.00000000E+00
  0.00000000E+00  0.00000000E+00  0.00000000E+00
  0.00000000E+00  0.00000000E+00  0.00000000E+00
  0.00000000E+00  0.00000000E+00  0.00000000E+00
