SnO_P4/nmm
   1.00000000000000     
     3.8136952200000001    0.0000000000000000    0.0000000000000002
     0.0000000000000006    3.8136952200000001    0.0000000000000002
     0.0000000000000000    0.0000000000000000    4.8869132999999998
   Sn   O 
     2     2
Direct
  0.0000000000000000  0.5000000000000000  0.2353738600000028
  0.5000000000000000  0.0000000000000000  0.7646261399999972
  0.5000000000000000  0.5000000000000000  0.0000000000000000
  0.0000000000000000  0.0000000000000000  0.0000000000000000
 
  0.00000000E+00  0.00000000E+00  0.00000000E+00
  0.00000000E+00  0.00000000E+00  0.00000000E+00
  0.00000000E+00  0.00000000E+00  0.00000000E+00
  0.00000000E+00  0.00000000E+00  0.00000000E+00
