Sn1 S2                                  
   1.00000000000000     
     1.8371528002849880   -3.1820419913610376    0.0000000000000000
     1.8371528002849880    3.1820419913610376    0.0000000000000000
     0.0000000000000000    0.0000000000000000    6.2288318399999998
   Sn   S 
     1     2
Direct
  0.0000000000000000  0.0000000000000000  0.0000000000000000
  0.3333333333333357  0.6666666666666643  0.2346534699999978
  0.6666666666666643  0.3333333333333357  0.7653465300000022
 
  0.00000000E+00  0.00000000E+00  0.00000000E+00
  0.00000000E+00  0.00000000E+00  0.00000000E+00
  0.00000000E+00  0.00000000E+00  0.00000000E+00
