Sn4 S4                                  
   1.00000000000000     
     3.9568552100000001    0.0000000000000000    0.0000000000000002
     0.0000000000000007    4.5328106899999998    0.0000000000000003
     0.0000000000000000    0.0000000000000000   11.3920185099999998
   Sn   S 
     4     4
Direct
  0.2500000000000000  0.3695398400000016  0.6216327500000034
  0.7500000000000000  0.6304601599999984  0.3783672499999966
  0.7500000000000000  0.8695398400000016  0.8783672499999966
  0.2500000000000000  0.1304601599999984  0.1216327499999963
  0.2500000000000000  0.0105968000000018  0.3474974599999996
  0.7500000000000000  0.9894031999999982  0.6525025400000004
  0.7500000000000000  0.5105968000000018  0.1525025400000004
  0.2500000000000000  0.4894031999999982  0.8474974599999996
 
  0.00000000E+00  0.00000000E+00  0.00000000E+00
  0.00000000E+00  0.00000000E+00  0.00000000E+00
  0.00000000E+00  0.00000000E+00  0.00000000E+00
  0.00000000E+00  0.00000000E+00  0.00000000E+00
  0.00000000E+00  0.00000000E+00  0.00000000E+00
  0.00000000E+00  0.00000000E+00  0.00000000E+00
  0.00000000E+00  0.00000000E+00  0.00000000E+00
  0.00000000E+00  0.00000000E+00  0.00000000E+00
