Sn1 Se2                                 
   1.00000000000000     
     1.9209495682022173   -3.3271822509037365    0.0000000000000000
     1.9209495682022173    3.3271822509037365    0.0000000000000000
     0.0000000000000000    0.0000000000000000    6.4858801000000001
   Sn   Se
     1     2
Direct
  0.0000000000000000  0.0000000000000000  0.0000000000000000
  0.6666666666666643  0.3333333333333357  0.7570988599999993
  0.3333333333333357  0.6666666666666643  0.2429011400000007
 
  0.00000000E+00  0.00000000E+00  0.00000000E+00
  0.00000000E+00  0.00000000E+00  0.00000000E+00
  0.00000000E+00  0.00000000E+00  0.00000000E+00
