Sn4 Se4                                 
   1.00000000000000     
     4.1262509500000002    0.0000000000000000    0.0000000000000003
     0.0000000000000008    4.7009074499999999    0.0000000000000003
     0.0000000000000000    0.0000000000000000   11.6644585000000003
   Sn   Se
     4     4
Direct
  0.7500000000000000  0.3765543000000022  0.6187868499999993
  0.2500000000000000  0.8765543000000022  0.8812131500000007
  0.2500000000000000  0.6234456999999978  0.3812131500000007
  0.7500000000000000  0.1234456999999978  0.1187868499999993
  0.2500000000000000  0.5091818000000004  0.1485530300000022
  0.2500000000000000  0.9908181999999996  0.6485530300000022
  0.7500000000000000  0.0091818000000004  0.3514469699999978
  0.7500000000000000  0.4908181999999996  0.8514469699999978
 
  0.00000000E+00  0.00000000E+00  0.00000000E+00
  0.00000000E+00  0.00000000E+00  0.00000000E+00
  0.00000000E+00  0.00000000E+00  0.00000000E+00
  0.00000000E+00  0.00000000E+00  0.00000000E+00
  0.00000000E+00  0.00000000E+00  0.00000000E+00
  0.00000000E+00  0.00000000E+00  0.00000000E+00
  0.00000000E+00  0.00000000E+00  0.00000000E+00
  0.00000000E+00  0.00000000E+00  0.00000000E+00
