SrCl2_Fm-3m
   1.00000000000000     
     0.0000000000000006    3.4997473228267331    3.4997473228267331
     3.4997473228267331    0.0000000000000000    3.4997473228267331
     3.4997473228267335    3.4997473228267331    0.0000000000000004
   Sr   Cl
     1     2
Direct
  0.0000000000000000  0.0000000000000000  0.0000000000000000
  0.7500000000000000  0.7500000000000000  0.7500000000000000
  0.2500000000000000  0.2500000000000000  0.2500000000000000
 
  0.00000000E+00  0.00000000E+00  0.00000000E+00
  0.00000000E+00  0.00000000E+00  0.00000000E+00
  0.00000000E+00  0.00000000E+00  0.00000000E+00
