Sr1 F2                                  
   1.00000000000000     
     0.0000000000000005    2.8992853027481118    2.8992853027481118
     2.8992853027481118    0.0000000000000000    2.8992853027481118
     2.8992853027481122    2.8992853027481118    0.0000000000000004
   Sr   F 
     1     2
Direct
  0.0000000000000000  0.0000000000000000  0.0000000000000000
  0.7500000000000000  0.7500000000000000  0.7500000000000000
  0.2500000000000000  0.2500000000000000  0.2500000000000000
 
  0.00000000E+00  0.00000000E+00  0.00000000E+00
  0.00000000E+00  0.00000000E+00  0.00000000E+00
  0.00000000E+00  0.00000000E+00  0.00000000E+00
