Sr4 Hf4 O12                             
   1.00000000000000     
     5.7605346099999997    0.0000000000000000    0.0000000000000004
     0.0000000000000009    5.7770146599999999    0.0000000000000004
     0.0000000000000000    0.0000000000000000    8.1407090199999992
   Sr   Hf   O 
     4     4    12
Direct
  0.5052187650000022  0.5244026399999981  0.2500000000000000
  0.0052187650000022  0.9755973600000019  0.7500000000000000
  0.9947812349999978  0.0244026399999981  0.2500000000000000
  0.4947812349999978  0.4755973600000019  0.7500000000000000
  0.5000000000000000  0.0000000000000000  0.0000000000000000
  0.0000000000000000  0.5000000000000000  0.0000000000000000
  0.0000000000000000  0.5000000000000000  0.5000000000000000
  0.5000000000000000  0.0000000000000000  0.5000000000000000
  0.7193089949999987  0.2807083200000022  0.4652360199999990
  0.2193089949999987  0.2192916799999978  0.5347639800000010
  0.7806910050000013  0.7807083200000022  0.0347639800000010
  0.2806910050000013  0.7192916799999978  0.9652360199999990
  0.2806910050000013  0.7192916799999978  0.5347639800000010
  0.7806910050000013  0.7807083200000022  0.4652360199999990
  0.2193089949999987  0.2192916799999978  0.9652360199999990
  0.7193089949999987  0.2807083200000022  0.0347639800000010
  0.4336591550000009  0.9866125900000000  0.2500000000000000
  0.9336591550000009  0.5133874100000000  0.7500000000000000
  0.0663408449999991  0.4866125900000000  0.2500000000000000
  0.5663408449999991  0.0133874100000000  0.7500000000000000
 
  0.00000000E+00  0.00000000E+00  0.00000000E+00
  0.00000000E+00  0.00000000E+00  0.00000000E+00
  0.00000000E+00  0.00000000E+00  0.00000000E+00
  0.00000000E+00  0.00000000E+00  0.00000000E+00
  0.00000000E+00  0.00000000E+00  0.00000000E+00
  0.00000000E+00  0.00000000E+00  0.00000000E+00
  0.00000000E+00  0.00000000E+00  0.00000000E+00
  0.00000000E+00  0.00000000E+00  0.00000000E+00
  0.00000000E+00  0.00000000E+00  0.00000000E+00
  0.00000000E+00  0.00000000E+00  0.00000000E+00
  0.00000000E+00  0.00000000E+00  0.00000000E+00
  0.00000000E+00  0.00000000E+00  0.00000000E+00
  0.00000000E+00  0.00000000E+00  0.00000000E+00
  0.00000000E+00  0.00000000E+00  0.00000000E+00
  0.00000000E+00  0.00000000E+00  0.00000000E+00
  0.00000000E+00  0.00000000E+00  0.00000000E+00
  0.00000000E+00  0.00000000E+00  0.00000000E+00
  0.00000000E+00  0.00000000E+00  0.00000000E+00
  0.00000000E+00  0.00000000E+00  0.00000000E+00
  0.00000000E+00  0.00000000E+00  0.00000000E+00
