Sr1 O1                                  
   1.00000000000000     
     0.0000000000000004    2.5837846887881502    2.5837846887881502
     2.5837846887881502    0.0000000000000000    2.5837846887881502
     2.5837846887881506    2.5837846887881502    0.0000000000000003
   Sr   O 
     1     1
Direct
  0.5000000000000000  0.5000000000000000  0.5000000000000000
  0.0000000000000000  0.0000000000000000  0.0000000000000000
 
  0.00000000E+00  0.00000000E+00  0.00000000E+00
  0.00000000E+00  0.00000000E+00  0.00000000E+00
