Sr1 S1                                  
   1.00000000000000     
     0.0000000000000005    3.0240167386613988    3.0240167386613988
     3.0240167386613988    0.0000000000000000    3.0240167386613988
     3.0240167386613992    3.0240167386613988    0.0000000000000004
   Sr   S 
     1     1
Direct
  0.0000000000000000  0.0000000000000000  0.0000000000000000
  0.5000000000000000  0.5000000000000000  0.5000000000000000
 
  0.00000000E+00  0.00000000E+00  0.00000000E+00
  0.00000000E+00  0.00000000E+00  0.00000000E+00
