Sr1 Se1                                 
   1.00000000000000     
     0.0000000000000005    3.1397108742009778    3.1397108742009778
     3.1397108742009778    0.0000000000000000    3.1397108742009778
     3.1397108742009783    3.1397108742009778    0.0000000000000004
   Sr   Se
     1     1
Direct
  0.0000000000000000  0.0000000000000000  0.0000000000000000
  0.5000000000000000  0.5000000000000000  0.5000000000000000
 
  0.00000000E+00  0.00000000E+00  0.00000000E+00
  0.00000000E+00  0.00000000E+00  0.00000000E+00
