Sr4 Sn4 O12                             
   1.00000000000000     
     5.7264999699999999    0.0000000000000000    0.0000000000000004
     0.0000000000000009    5.7382020599999999    0.0000000000000004
     0.0000000000000000    0.0000000000000000    8.1016131300000005
   Sr   Sn   O 
     4     4    12
Direct
  0.5059975400000027  0.5273038400000019  0.2500000000000000
  0.9940024599999973  0.0273038400000019  0.2500000000000000
  0.0059975400000027  0.9726961599999981  0.7500000000000000
  0.4940024599999973  0.4726961599999981  0.7500000000000000
  0.0000000000000000  0.5000000000000000  0.0000000000000000
  0.5000000000000000  0.0000000000000000  0.5000000000000000
  0.5000000000000000  0.0000000000000000  0.0000000000000000
  0.0000000000000000  0.5000000000000000  0.5000000000000000
  0.7170387199999979  0.2826693100000028  0.4647834399999979
  0.7829612800000021  0.7826693100000028  0.0352165600000021
  0.2170387199999979  0.2173306899999972  0.5352165600000021
  0.2829612800000021  0.7173306899999972  0.9647834399999979
  0.2829612800000021  0.7173306899999972  0.5352165600000021
  0.2170387199999979  0.2173306899999972  0.9647834399999979
  0.7829612800000021  0.7826693100000028  0.4647834399999979
  0.7170387199999979  0.2826693100000028  0.0352165600000021
  0.0664816800000025  0.4866080999999980  0.2500000000000000
  0.4335183199999975  0.9866080999999980  0.2500000000000000
  0.5664816800000025  0.0133919000000020  0.7500000000000000
  0.9335183199999975  0.5133919000000020  0.7500000000000000
 
  0.00000000E+00  0.00000000E+00  0.00000000E+00
  0.00000000E+00  0.00000000E+00  0.00000000E+00
  0.00000000E+00  0.00000000E+00  0.00000000E+00
  0.00000000E+00  0.00000000E+00  0.00000000E+00
  0.00000000E+00  0.00000000E+00  0.00000000E+00
  0.00000000E+00  0.00000000E+00  0.00000000E+00
  0.00000000E+00  0.00000000E+00  0.00000000E+00
  0.00000000E+00  0.00000000E+00  0.00000000E+00
  0.00000000E+00  0.00000000E+00  0.00000000E+00
  0.00000000E+00  0.00000000E+00  0.00000000E+00
  0.00000000E+00  0.00000000E+00  0.00000000E+00
  0.00000000E+00  0.00000000E+00  0.00000000E+00
  0.00000000E+00  0.00000000E+00  0.00000000E+00
  0.00000000E+00  0.00000000E+00  0.00000000E+00
  0.00000000E+00  0.00000000E+00  0.00000000E+00
  0.00000000E+00  0.00000000E+00  0.00000000E+00
  0.00000000E+00  0.00000000E+00  0.00000000E+00
  0.00000000E+00  0.00000000E+00  0.00000000E+00
  0.00000000E+00  0.00000000E+00  0.00000000E+00
  0.00000000E+00  0.00000000E+00  0.00000000E+00
