Sr1 Te1                                 
   1.00000000000000     
     0.0000000000000005    3.3558353104196139    3.3558353104196139
     3.3558353104196139    0.0000000000000000    3.3558353104196139
     3.3558353104196144    3.3558353104196139    0.0000000000000004
   Sr   Te
     1     1
Direct
  0.0000000000000000  0.0000000000000000  0.0000000000000000
  0.5000000000000000  0.5000000000000000  0.5000000000000000
 
  0.00000000E+00  0.00000000E+00  0.00000000E+00
  0.00000000E+00  0.00000000E+00  0.00000000E+00
