SrTiO3_Pm-3m
1.0
   3.8977783100000001   0.0000000000000000   0.0000000000000000
   0.0000000000000000   3.8977783100000001   0.0000000000000000
   0.0000000000000000   0.0000000000000000   3.8977783100000001
Sr  Ti  O
1  1  3
Direct
   0.0000000000000000   0.0000000000000000   0.0000000000000000
   0.5000000000000000   0.5000000000000000   0.5000000000000000
   0.5000000000000000   0.0000000000000000   0.5000000000000000
   0.5000000000000000   0.5000000000000000   0.0000000000000000
   0.0000000000000000   0.5000000000000000   0.5000000000000000
