Sr4 Zr4 O12                             
   1.00000000000000     
     5.7952411499999998    0.0000000000000000    0.0000000000000004
     0.0000000000000009    5.8442895999999998    0.0000000000000004
     0.0000000000000000    0.0000000000000000    8.2145741200000000
   Sr   Zr   O 
     4     4    12
Direct
  0.0069506199999978  0.5313782899999993  0.2500000000000000
  0.5069506199999978  0.9686217100000007  0.7500000000000000
  0.4930493800000022  0.0313782899999993  0.2500000000000000
  0.9930493800000022  0.4686217100000007  0.7500000000000000
  0.0000000000000000  0.0000000000000000  0.0000000000000000
  0.5000000000000000  0.5000000000000000  0.0000000000000000
  0.5000000000000000  0.5000000000000000  0.5000000000000000
  0.0000000000000000  0.0000000000000000  0.5000000000000000
  0.2143542399999987  0.2854499399999995  0.4608332000000033
  0.7143542399999987  0.2145500600000005  0.5391667999999967
  0.2856457600000013  0.7854499399999995  0.0391667999999967
  0.7856457600000013  0.7145500600000005  0.9608332000000033
  0.7856457600000013  0.7145500600000005  0.5391667999999967
  0.2856457600000013  0.7854499399999995  0.4608332000000033
  0.7143542399999987  0.2145500600000005  0.9608332000000033
  0.2143542399999987  0.2854499399999995  0.0391667999999967
  0.9258093899999977  0.9813680299999987  0.2500000000000000
  0.4258093899999977  0.5186319700000013  0.7500000000000000
  0.5741906100000023  0.4813680299999987  0.2500000000000000
  0.0741906100000023  0.0186319700000013  0.7500000000000000
 
  0.00000000E+00  0.00000000E+00  0.00000000E+00
  0.00000000E+00  0.00000000E+00  0.00000000E+00
  0.00000000E+00  0.00000000E+00  0.00000000E+00
  0.00000000E+00  0.00000000E+00  0.00000000E+00
  0.00000000E+00  0.00000000E+00  0.00000000E+00
  0.00000000E+00  0.00000000E+00  0.00000000E+00
  0.00000000E+00  0.00000000E+00  0.00000000E+00
  0.00000000E+00  0.00000000E+00  0.00000000E+00
  0.00000000E+00  0.00000000E+00  0.00000000E+00
  0.00000000E+00  0.00000000E+00  0.00000000E+00
  0.00000000E+00  0.00000000E+00  0.00000000E+00
  0.00000000E+00  0.00000000E+00  0.00000000E+00
  0.00000000E+00  0.00000000E+00  0.00000000E+00
  0.00000000E+00  0.00000000E+00  0.00000000E+00
  0.00000000E+00  0.00000000E+00  0.00000000E+00
  0.00000000E+00  0.00000000E+00  0.00000000E+00
  0.00000000E+00  0.00000000E+00  0.00000000E+00
  0.00000000E+00  0.00000000E+00  0.00000000E+00
  0.00000000E+00  0.00000000E+00  0.00000000E+00
  0.00000000E+00  0.00000000E+00  0.00000000E+00
