TiO2_P4_2/mnm
   1.00000000000000     
     4.5964632912614629    0.0000000000000000    0.0000000000000003
     0.0000000000000007    4.5964632912614629    0.0000000000000003
     0.0000000000000000    0.0000000000000000    2.9446000827314327
   Ti   O 
     2     4
Direct
  0.5000000000000000  0.5000000000000000  0.0000000000000000
  0.0000000000000000  0.0000000000000000  0.5000000000000000
  0.6957372991970597  0.6957372991970597  0.5000000000000000
  0.1957372991970597  0.8042627008029403 -0.0000000000000000
  0.8042627008029403  0.1957372991970597  0.0000000000000000
  0.3042627008029403  0.3042627008029403  0.5000000000000000
 
  0.00000000E+00  0.00000000E+00  0.00000000E+00
  0.00000000E+00  0.00000000E+00  0.00000000E+00
  0.00000000E+00  0.00000000E+00  0.00000000E+00
  0.00000000E+00  0.00000000E+00  0.00000000E+00
  0.00000000E+00  0.00000000E+00  0.00000000E+00
  0.00000000E+00  0.00000000E+00  0.00000000E+00
