TiO2_I4_1/amd
   1.00000000000000     
    -1.8912698399588159    1.8912698399588161    4.8075107874006182
     1.8912698399588159   -1.8912698399588161    4.8075107874006182
     1.8912698399588164    1.8912698399588161   -4.8075107874006182
   Ti   O 
     2     4
Direct
  0.0000000000000000  0.0000000000000000  0.0000000000000000
  0.7500000000000000  0.2500000000000000  0.5000000000000000
  0.9571521250000004  0.4571521250000004  0.5000000000000000
  0.2071521250000004  0.2071521250000004  0.0000000000000000
  0.5428478749999996  0.0428478749999996  0.5000000000000000
  0.7928478749999996  0.7928478749999996  0.0000000000000000
 
  0.00000000E+00  0.00000000E+00  0.00000000E+00
  0.00000000E+00  0.00000000E+00  0.00000000E+00
  0.00000000E+00  0.00000000E+00  0.00000000E+00
  0.00000000E+00  0.00000000E+00  0.00000000E+00
  0.00000000E+00  0.00000000E+00  0.00000000E+00
  0.00000000E+00  0.00000000E+00  0.00000000E+00
