Tl1 Cl1                                 
   1.00000000000000     
     3.8374673799999997    0.0000000000000000    0.0000000000000002
     0.0000000000000006    3.8374673799999997    0.0000000000000002
     0.0000000000000000    0.0000000000000000    3.8374673799999997
   Tl   Cl
     1     1
Direct
  0.0000000000000000  0.0000000000000000  0.0000000000000000
  0.5000000000000000  0.5000000000000000  0.5000000000000000
 
  0.00000000E+00  0.00000000E+00  0.00000000E+00
  0.00000000E+00  0.00000000E+00  0.00000000E+00
