ZnF2_P4_2/mnm
   1.00000000000000     
     4.7029441700000003    0.0000000000000000    0.0000000000000003
     0.0000000000000008    4.7029441700000003    0.0000000000000003
     0.0000000000000000    0.0000000000000000    3.1328902099999998
   Zn   F 
     2     4
Direct
  0.5000000000000000  0.5000000000000000  0.5000000000000000
  0.0000000000000000  0.0000000000000000  0.0000000000000000
  0.6968616200000000  0.6968616200000000  0.0000000000000000
  0.1968616200000000  0.8031383800000000  0.5000000000000000
  0.3031383800000000  0.3031383800000000  0.0000000000000000
  0.8031383800000000  0.1968616200000000  0.5000000000000000
 
  0.00000000E+00  0.00000000E+00  0.00000000E+00
  0.00000000E+00  0.00000000E+00  0.00000000E+00
  0.00000000E+00  0.00000000E+00  0.00000000E+00
  0.00000000E+00  0.00000000E+00  0.00000000E+00
  0.00000000E+00  0.00000000E+00  0.00000000E+00
  0.00000000E+00  0.00000000E+00  0.00000000E+00
