ZnGa2O4_Fd-3m
   1.00000000000000     
     0.0000000000000007    4.1711888807830091    4.1711888807830091
     4.1711888807830091    0.0000000000000000    4.1711888807830091
     4.1711888807830100    4.1711888807830091    0.0000000000000005
   Zn   Ga   O 
     2     4     8
Direct
  0.5000000000000000  0.5000000000000000  0.5000000000000000
  0.7500000000000000  0.7500000000000000  0.7500000000000000
  0.1250000000000000  0.1250000000000000  0.6250000000000000
  0.1250000000000000  0.6250000000000000  0.1250000000000000
  0.6250000000000000  0.1250000000000000  0.1250000000000000
  0.1250000000000000  0.1250000000000000  0.1250000000000000
  0.8865055099999992  0.3404834700000023  0.8865055099999992
  0.3634944900000008  0.3634944900000008  0.9095165299999977
  0.3634944900000008  0.3634944900000008  0.3634944900000008
  0.9095165299999977  0.3634944900000008  0.3634944900000008
  0.8865055099999992  0.8865055099999992  0.8865055099999992
  0.3404834700000023  0.8865055099999992  0.8865055099999992
  0.3634944900000008  0.9095165299999977  0.3634944900000008
  0.8865055099999992  0.8865055099999992  0.3404834700000023
 
  0.00000000E+00  0.00000000E+00  0.00000000E+00
  0.00000000E+00  0.00000000E+00  0.00000000E+00
  0.00000000E+00  0.00000000E+00  0.00000000E+00
  0.00000000E+00  0.00000000E+00  0.00000000E+00
  0.00000000E+00  0.00000000E+00  0.00000000E+00
  0.00000000E+00  0.00000000E+00  0.00000000E+00
  0.00000000E+00  0.00000000E+00  0.00000000E+00
  0.00000000E+00  0.00000000E+00  0.00000000E+00
  0.00000000E+00  0.00000000E+00  0.00000000E+00
  0.00000000E+00  0.00000000E+00  0.00000000E+00
  0.00000000E+00  0.00000000E+00  0.00000000E+00
  0.00000000E+00  0.00000000E+00  0.00000000E+00
  0.00000000E+00  0.00000000E+00  0.00000000E+00
  0.00000000E+00  0.00000000E+00  0.00000000E+00
