ZnGeAs2_I-42d
   1.00000000000000     
    -2.8366003620069873    2.8366003620069877    5.6046068092128012
     2.8366003620069873   -2.8366003620069877    5.6046068092128012
     2.8366003620069882    2.8366003620069877   -5.6046068092128012
   Zn   Ge   As
     2     2     4
Direct
  0.0000000000000000  0.0000000000000000  0.0000000000000000
  0.7500000000000000  0.2500000000000000  0.5000000000000000
  0.5000000000000000  0.5000000000000000  0.0000000000000000
  0.2500000000000000  0.7500000000000000  0.5000000000000000
  0.6237683199999964  0.6250000000000000  0.4987683199999964
  0.3750000000000000  0.8737683199999964  0.9987683200000035
  0.8750000000000000  0.3762316800000036  0.0012316800000036
  0.1262316800000036  0.1250000000000000  0.5012316800000036
 
  0.00000000E+00  0.00000000E+00  0.00000000E+00
  0.00000000E+00  0.00000000E+00  0.00000000E+00
  0.00000000E+00  0.00000000E+00  0.00000000E+00
  0.00000000E+00  0.00000000E+00  0.00000000E+00
  0.00000000E+00  0.00000000E+00  0.00000000E+00
  0.00000000E+00  0.00000000E+00  0.00000000E+00
  0.00000000E+00  0.00000000E+00  0.00000000E+00
  0.00000000E+00  0.00000000E+00  0.00000000E+00
