Zn2 Ge2 P4                              
   1.00000000000000     
    -2.7212385976340747    2.7212385976340752    5.3647668950840197
     2.7212385976340747   -2.7212385976340752    5.3647668950840197
     2.7212385976340756    2.7212385976340752   -5.3647668950840197
   Zn   Ge   P 
     2     2     4
Direct
  0.7500000000000000  0.2500000000000000  0.5000000000000000
  0.0000000000000000  0.0000000000000000  0.0000000000000000
  0.2500000000000000  0.7500000000000000  0.5000000000000000
  0.5000000000000000  0.5000000000000000  0.0000000000000000
  0.1295624999999987  0.6250000000000000  0.0045624999999987
  0.8750000000000000  0.8704375000000013  0.4954375000000013
  0.3750000000000000  0.3795624999999987  0.5045624999999987
  0.6204375000000013  0.1250000000000000  0.9954375000000013
 
  0.00000000E+00  0.00000000E+00  0.00000000E+00
  0.00000000E+00  0.00000000E+00  0.00000000E+00
  0.00000000E+00  0.00000000E+00  0.00000000E+00
  0.00000000E+00  0.00000000E+00  0.00000000E+00
  0.00000000E+00  0.00000000E+00  0.00000000E+00
  0.00000000E+00  0.00000000E+00  0.00000000E+00
  0.00000000E+00  0.00000000E+00  0.00000000E+00
  0.00000000E+00  0.00000000E+00  0.00000000E+00
