Zn2 Si2 P4                              
   1.00000000000000     
    -2.6867032364460468    2.6867032364460472    5.2300306317915988
     2.6867032364460468   -2.6867032364460472    5.2300306317915988
     2.6867032364460477    2.6867032364460472   -5.2300306317915988
   Zn   Si   P 
     2     2     4
Direct
  0.0000000000000000  0.0000000000000000  0.0000000000000000
  0.7500000000000000  0.2500000000000000  0.5000000000000000
  0.5000000000000000  0.5000000000000000  0.0000000000000000
  0.2500000000000000  0.7500000000000000  0.5000000000000000
  0.3750000000000000  0.3923011999999986  0.5173011999999986
  0.8750000000000000  0.8576988000000014  0.4826988000000014
  0.6076988000000014  0.1250000000000000  0.9826988000000014
  0.1423011999999986  0.6250000000000000  0.0173011999999986
 
  0.00000000E+00  0.00000000E+00  0.00000000E+00
  0.00000000E+00  0.00000000E+00  0.00000000E+00
  0.00000000E+00  0.00000000E+00  0.00000000E+00
  0.00000000E+00  0.00000000E+00  0.00000000E+00
  0.00000000E+00  0.00000000E+00  0.00000000E+00
  0.00000000E+00  0.00000000E+00  0.00000000E+00
  0.00000000E+00  0.00000000E+00  0.00000000E+00
  0.00000000E+00  0.00000000E+00  0.00000000E+00
