Zn2 Sn2 P4                              
   1.00000000000000     
    -2.8237507040115122    2.8237507040115126    5.6621699047698755
     2.8237507040115122   -2.8237507040115126    5.6621699047698755
     2.8237507040115131    2.8237507040115126   -5.6621699047698755
   Zn   Sn   P 
     2     2     4
Direct
  0.7500000000000000  0.2500000000000000  0.5000000000000000
  0.0000000000000000  0.0000000000000000  0.0000000000000000
  0.2500000000000000  0.7500000000000000  0.5000000000000000
  0.5000000000000000  0.5000000000000000  0.0000000000000000
  0.3750000000000000  0.3536230799999984  0.4786230799999984
  0.6463769200000016  0.1250000000000000  0.0213769200000016
  0.1036230799999984  0.6250000000000000  0.9786230799999984
  0.8750000000000000  0.8963769200000016  0.5213769200000016
 
  0.00000000E+00  0.00000000E+00  0.00000000E+00
  0.00000000E+00  0.00000000E+00  0.00000000E+00
  0.00000000E+00  0.00000000E+00  0.00000000E+00
  0.00000000E+00  0.00000000E+00  0.00000000E+00
  0.00000000E+00  0.00000000E+00  0.00000000E+00
  0.00000000E+00  0.00000000E+00  0.00000000E+00
  0.00000000E+00  0.00000000E+00  0.00000000E+00
  0.00000000E+00  0.00000000E+00  0.00000000E+00
