ZrO2_P2_1/c
   1.00000000000000     
     0.0000000000000000    5.1539878367877714    0.0000000000000000
     5.2281087199999998    0.0000000000000000    0.0000000000000000
     0.0000000000000000   -0.8738660201601957   -5.2575678148380698
   Zr   O 
     4     8
Direct
  0.2763091699999976  0.0421465699999999  0.2095975900000013
  0.2763091699999976  0.4578534300000001  0.7095975900000013
  0.7236908300000024  0.5421465699999999  0.2904024099999987
  0.7236908300000024  0.9578534300000001  0.7904024099999987
  0.9307913999999968  0.8337119400000006  0.1561718700000014
  0.9307913999999968  0.6662880599999994  0.6561718700000014
  0.4493030300000029  0.7425795600000029  0.9786043300000031
  0.5506969699999971  0.2425795600000029  0.5213956699999969
  0.4493030300000029  0.7574204399999971  0.4786043300000031
  0.5506969699999971  0.2574204399999971  0.0213956699999969
  0.0692086000000032  0.3337119400000006  0.3438281299999986
  0.0692086000000032  0.1662880599999994  0.8438281299999986
 
  0.00000000E+00  0.00000000E+00  0.00000000E+00
  0.00000000E+00  0.00000000E+00  0.00000000E+00
  0.00000000E+00  0.00000000E+00  0.00000000E+00
  0.00000000E+00  0.00000000E+00  0.00000000E+00
  0.00000000E+00  0.00000000E+00  0.00000000E+00
  0.00000000E+00  0.00000000E+00  0.00000000E+00
  0.00000000E+00  0.00000000E+00  0.00000000E+00
  0.00000000E+00  0.00000000E+00  0.00000000E+00
  0.00000000E+00  0.00000000E+00  0.00000000E+00
  0.00000000E+00  0.00000000E+00  0.00000000E+00
  0.00000000E+00  0.00000000E+00  0.00000000E+00
  0.00000000E+00  0.00000000E+00  0.00000000E+00
