ZrS2_P-3m1
   1.00000000000000     
     1.8456912749093912   -3.1968310632296415    0.0000000000000000
     1.8456912749093912    3.1968310632296415    0.0000000000000000
     0.0000000000000000    0.0000000000000000    6.0410770100000004
   Zr   S 
     1     2
Direct
  0.0000000000000000  0.0000000000000000  0.0000000000000000
  0.6666666666666643  0.3333333333333357  0.7620900300000031
  0.3333333333333357  0.6666666666666643  0.2379099699999969
 
  0.00000000E+00  0.00000000E+00  0.00000000E+00
  0.00000000E+00  0.00000000E+00  0.00000000E+00
  0.00000000E+00  0.00000000E+00  0.00000000E+00
