ZrSe2_P-3m1
   1.00000000000000     
     1.9055762550860638   -3.3005548915058935    0.0000000000000000
     1.9055762550860638    3.3005548915058935    0.0000000000000000
     0.0000000000000000    0.0000000000000000    6.3999068899999996
   Zr   Se
     1     2
Direct
  0.0000000000000000  0.0000000000000000  0.0000000000000000
  0.6666666666666643  0.3333333333333357  0.7558824099999981
  0.3333333333333357  0.6666666666666643  0.2441175900000019
 
  0.00000000E+00  0.00000000E+00  0.00000000E+00
  0.00000000E+00  0.00000000E+00  0.00000000E+00
  0.00000000E+00  0.00000000E+00  0.00000000E+00
